# add your comment ... 

828 atoms
2 atom types

0.0000000000000000     22.1999999999999993   xlo xhi
0.0000000000000000     22.1999999999999993   ylo yhi
0.0000000000000000     22.1999999999999993   zlo zhi

Atoms

1     2     0   0.000000000000       0.000000000000       0.000000000000
2     2     0   0.000000000000       2.775000000000       2.775000000000
3     2     0   2.775000000000       0.000000000000       2.775000000000
4     2     0   2.775000000000       2.775000000000       0.000000000000
5     2     0   0.000000000000       0.000000000000       5.550000000000
6     2     0   0.000000000000       2.775000000000       8.325000000000
7     2     0   2.775000000000       0.000000000000       8.325000000000
8     2     0   2.775000000000       2.775000000000       5.550000000000
9     2     0   0.000000000000       0.000000000000      11.100000000000
10     2    0    0.000000000000       2.775000000000      13.875000000000
11     2    0    2.775000000000       0.000000000000      13.875000000000
12     2    0    2.775000000000       2.775000000000      11.100000000000
13     2    0    0.000000000000       0.000000000000      16.650000000000
14     2    0    0.000000000000       2.775000000000      19.425000000000
15     2    0    2.775000000000       0.000000000000      19.425000000000
16     2    0    2.775000000000       2.775000000000      16.650000000000
17     2    0    0.000000000000       5.550000000000       0.000000000000
18     2    0    0.000000000000       8.325000000000       2.775000000000
19     2    0    2.775000000000       5.550000000000       2.775000000000
20     2    0    2.775000000000       8.325000000000       0.000000000000
21     2    0    0.000000000000       5.550000000000       5.550000000000
22     2    0    0.000000000000       8.325000000000       8.325000000000
23     2    0    2.775000000000       5.550000000000       8.325000000000
24     2    0    2.775000000000       8.325000000000       5.550000000000
25     2    0    0.000000000000       5.550000000000      11.100000000000
26     2    0    0.000000000000       8.325000000000      13.875000000000
27     2    0    2.775000000000       5.550000000000      13.875000000000
28     2    0    2.775000000000       8.325000000000      11.100000000000
29     2    0    0.000000000000       5.550000000000      16.650000000000
30     2    0    0.000000000000       8.325000000000      19.425000000000
31     2    0    2.775000000000       5.550000000000      19.425000000000
32     2    0    2.775000000000       8.325000000000      16.650000000000
33     2    0    0.000000000000      11.100000000000       0.000000000000
34     2    0    0.000000000000      13.875000000000       2.775000000000
35     2    0    2.775000000000      11.100000000000       2.775000000000
36     2    0    2.775000000000      13.875000000000       0.000000000000
37     2    0    0.000000000000      11.100000000000       5.550000000000
38     2    0    0.000000000000      13.875000000000       8.325000000000
39     2    0    2.775000000000      11.100000000000       8.325000000000
40     2    0    2.775000000000      13.875000000000       5.550000000000
41     2    0    0.000000000000      11.100000000000      11.100000000000
42     2    0    0.000000000000      13.875000000000      13.875000000000
43     2    0    2.775000000000      11.100000000000      13.875000000000
44     2    0    2.775000000000      13.875000000000      11.100000000000
45     2    0    0.000000000000      11.100000000000      16.650000000000
46     2    0    0.000000000000      13.875000000000      19.425000000000
47     2    0    2.775000000000      11.100000000000      19.425000000000
48     2    0    2.775000000000      13.875000000000      16.650000000000
49     2    0    0.000000000000      16.650000000000       0.000000000000
50     2    0    0.000000000000      19.425000000000       2.775000000000
51     2    0    2.775000000000      16.650000000000       2.775000000000
52     2    0    2.775000000000      19.425000000000       0.000000000000
53     2    0    0.000000000000      16.650000000000       5.550000000000
54     2    0    0.000000000000      19.425000000000       8.325000000000
55     2    0    2.775000000000      16.650000000000       8.325000000000
56     2    0    2.775000000000      19.425000000000       5.550000000000
57     2    0    0.000000000000      16.650000000000      11.100000000000
58     2    0    0.000000000000      19.425000000000      13.875000000000
59     2    0    2.775000000000      16.650000000000      13.875000000000
60     2    0    2.775000000000      19.425000000000      11.100000000000
61     2    0    0.000000000000      16.650000000000      16.650000000000
62     2    0    0.000000000000      19.425000000000      19.425000000000
63     2    0    2.775000000000      16.650000000000      19.425000000000
64     2    0    2.775000000000      19.425000000000      16.650000000000
65     2    0    5.550000000000       0.000000000000       0.000000000000
66     2    0    5.550000000000       2.775000000000       2.775000000000
67     2    0    8.325000000000       0.000000000000       2.775000000000
68     2    0    8.325000000000       2.775000000000       0.000000000000
69     2    0    5.550000000000       0.000000000000       5.550000000000
70     2    0    5.550000000000       2.775000000000       8.325000000000
71     2    0    8.325000000000       0.000000000000       8.325000000000
72     2    0    8.325000000000       2.775000000000       5.550000000000
73     2    0    5.550000000000       0.000000000000      11.100000000000
74     2    0    5.550000000000       2.775000000000      13.875000000000
75     2    0    8.325000000000       0.000000000000      13.875000000000
76     2    0    8.325000000000       2.775000000000      11.100000000000
77     2    0    5.550000000000       0.000000000000      16.650000000000
78     2    0    5.550000000000       2.775000000000      19.425000000000
79     2    0    8.325000000000       0.000000000000      19.425000000000
80     2    0    8.325000000000       2.775000000000      16.650000000000
81     2    0    5.550000000000       5.550000000000       0.000000000000
82     2    0    5.550000000000       8.325000000000       2.775000000000
83     2    0    8.325000000000       5.550000000000       2.775000000000
84     2    0    8.325000000000       8.325000000000       0.000000000000
85     2    0    5.550000000000       5.550000000000       5.550000000000
86     2    0    5.550000000000       8.325000000000       8.325000000000
87     2    0    8.325000000000       5.550000000000       8.325000000000
88     2    0    8.325000000000       8.325000000000       5.550000000000
89     2    0    5.550000000000       5.550000000000      11.100000000000
90     2    0    5.550000000000       8.325000000000      13.875000000000
91     2    0    8.325000000000       5.550000000000      13.875000000000
92     2    0    8.325000000000       8.325000000000      11.100000000000
93     2    0    5.550000000000       5.550000000000      16.650000000000
94     2    0    5.550000000000       8.325000000000      19.425000000000
95     2    0    8.325000000000       5.550000000000      19.425000000000
96     2    0    8.325000000000       8.325000000000      16.650000000000
97     2    0    5.550000000000      11.100000000000       0.000000000000
98     2    0    5.550000000000      13.875000000000       2.775000000000
99     2    0    8.325000000000      11.100000000000       2.775000000000
100     2   0     8.325000000000      13.875000000000       0.000000000000
101     2   0     5.550000000000      11.100000000000       5.550000000000
102     2   0     5.550000000000      13.875000000000       8.325000000000
103     2   0     8.325000000000      11.100000000000       8.325000000000
104     2   0     8.325000000000      13.875000000000       5.550000000000
105     2   0     5.550000000000      11.100000000000      11.100000000000
106     2   0     5.550000000000      13.875000000000      13.875000000000
107     2   0     8.325000000000      11.100000000000      13.875000000000
108     2   0     8.325000000000      13.875000000000      11.100000000000
109     2   0     5.550000000000      11.100000000000      16.650000000000
110     2   0     5.550000000000      13.875000000000      19.425000000000
111     2   0     8.325000000000      11.100000000000      19.425000000000
112     2   0     8.325000000000      13.875000000000      16.650000000000
113     2   0     5.550000000000      16.650000000000       0.000000000000
114     2   0     5.550000000000      19.425000000000       2.775000000000
115     2   0     8.325000000000      16.650000000000       2.775000000000
116     2   0     8.325000000000      19.425000000000       0.000000000000
117     2   0     5.550000000000      16.650000000000       5.550000000000
118     2   0     5.550000000000      19.425000000000       8.325000000000
119     2   0     8.325000000000      16.650000000000       8.325000000000
120     2   0     8.325000000000      19.425000000000       5.550000000000
121     2   0     5.550000000000      16.650000000000      11.100000000000
122     2   0     5.550000000000      19.425000000000      13.875000000000
123     2   0     8.325000000000      16.650000000000      13.875000000000
124     2   0     8.325000000000      19.425000000000      11.100000000000
125     2   0     5.550000000000      16.650000000000      16.650000000000
126     2   0     5.550000000000      19.425000000000      19.425000000000
127     2   0     8.325000000000      16.650000000000      19.425000000000
128     2   0     8.325000000000      19.425000000000      16.650000000000
129     2   0    11.100000000000       0.000000000000       0.000000000000
130     2   0    11.100000000000       2.775000000000       2.775000000000
131     2   0    13.875000000000       0.000000000000       2.775000000000
132     2   0    13.875000000000       2.775000000000       0.000000000000
133     2   0    11.100000000000       0.000000000000       5.550000000000
134     2   0    11.100000000000       2.775000000000       8.325000000000
135     2   0    13.875000000000       0.000000000000       8.325000000000
136     2   0    13.875000000000       2.775000000000       5.550000000000
137     2   0    11.100000000000       0.000000000000      11.100000000000
138     2   0    11.100000000000       2.775000000000      13.875000000000
139     2   0    13.875000000000       0.000000000000      13.875000000000
140     2   0    13.875000000000       2.775000000000      11.100000000000
141     2   0    11.100000000000       0.000000000000      16.650000000000
142     2   0    11.100000000000       2.775000000000      19.425000000000
143     2   0    13.875000000000       0.000000000000      19.425000000000
144     2   0    13.875000000000       2.775000000000      16.650000000000
145     2   0    11.100000000000       5.550000000000       0.000000000000
146     2   0    11.100000000000       8.325000000000       2.775000000000
147     2   0    13.875000000000       5.550000000000       2.775000000000
148     2   0    13.875000000000       8.325000000000       0.000000000000
149     2   0    11.100000000000       5.550000000000       5.550000000000
150     2   0    11.100000000000       8.325000000000       8.325000000000
151     2   0    13.875000000000       5.550000000000       8.325000000000
152     2   0    13.875000000000       8.325000000000       5.550000000000
153     2   0    11.100000000000       5.550000000000      11.100000000000
154     2   0    11.100000000000       8.325000000000      13.875000000000
155     2   0    13.875000000000       5.550000000000      13.875000000000
156     2   0    13.875000000000       8.325000000000      11.100000000000
157     2   0    11.100000000000       5.550000000000      16.650000000000
158     2   0    11.100000000000       8.325000000000      19.425000000000
159     2   0    13.875000000000       5.550000000000      19.425000000000
160     2   0    13.875000000000       8.325000000000      16.650000000000
161     2   0    11.100000000000      11.100000000000       0.000000000000
162     2   0    11.100000000000      13.875000000000       2.775000000000
163     2   0    13.875000000000      11.100000000000       2.775000000000
164     2   0    13.875000000000      13.875000000000       0.000000000000
165     2   0    11.100000000000      11.100000000000       5.550000000000
166     2   0    11.100000000000      13.875000000000       8.325000000000
167     2   0    13.875000000000      11.100000000000       8.325000000000
168     2   0    13.875000000000      13.875000000000       5.550000000000
169     2   0    11.100000000000      11.100000000000      11.100000000000
170     2   0    11.100000000000      13.875000000000      13.875000000000
171     2   0    13.875000000000      11.100000000000      13.875000000000
172     2   0    13.875000000000      13.875000000000      11.100000000000
173     2   0    11.100000000000      11.100000000000      16.650000000000
174     2   0    11.100000000000      13.875000000000      19.425000000000
175     2   0    13.875000000000      11.100000000000      19.425000000000
176     2   0    13.875000000000      13.875000000000      16.650000000000
177     2   0    11.100000000000      16.650000000000       0.000000000000
178     2   0    11.100000000000      19.425000000000       2.775000000000
179     2   0    13.875000000000      16.650000000000       2.775000000000
180     2   0    13.875000000000      19.425000000000       0.000000000000
181     2   0    11.100000000000      16.650000000000       5.550000000000
182     2   0    11.100000000000      19.425000000000       8.325000000000
183     2   0    13.875000000000      16.650000000000       8.325000000000
184     2   0    13.875000000000      19.425000000000       5.550000000000
185     2   0    11.100000000000      16.650000000000      11.100000000000
186     2   0    11.100000000000      19.425000000000      13.875000000000
187     2   0    13.875000000000      16.650000000000      13.875000000000
188     2   0    13.875000000000      19.425000000000      11.100000000000
189     2   0    11.100000000000      16.650000000000      16.650000000000
190     2   0    11.100000000000      19.425000000000      19.425000000000
191     2   0    13.875000000000      16.650000000000      19.425000000000
192     2   0    13.875000000000      19.425000000000      16.650000000000
193     2   0    16.650000000000       0.000000000000       0.000000000000
194     2   0    16.650000000000       2.775000000000       2.775000000000
195     2   0    19.425000000000       0.000000000000       2.775000000000
196     2   0    19.425000000000       2.775000000000       0.000000000000
197     2   0    16.650000000000       0.000000000000       5.550000000000
198     2   0    16.650000000000       2.775000000000       8.325000000000
199     2   0    19.425000000000       0.000000000000       8.325000000000
200     2   0    19.425000000000       2.775000000000       5.550000000000
201     2   0    16.650000000000       0.000000000000      11.100000000000
202     2   0    16.650000000000       2.775000000000      13.875000000000
203     2   0    19.425000000000       0.000000000000      13.875000000000
204     2   0    19.425000000000       2.775000000000      11.100000000000
205     2   0    16.650000000000       0.000000000000      16.650000000000
206     2   0    16.650000000000       2.775000000000      19.425000000000
207     2   0    19.425000000000       0.000000000000      19.425000000000
208     2   0    19.425000000000       2.775000000000      16.650000000000
209     2   0    16.650000000000       5.550000000000       0.000000000000
210     2   0    16.650000000000       8.325000000000       2.775000000000
211     2   0    19.425000000000       5.550000000000       2.775000000000
212     2   0    19.425000000000       8.325000000000       0.000000000000
213     2   0    16.650000000000       5.550000000000       5.550000000000
214     2   0    16.650000000000       8.325000000000       8.325000000000
215     2   0    19.425000000000       5.550000000000       8.325000000000
216     2   0    19.425000000000       8.325000000000       5.550000000000
217     2   0    16.650000000000       5.550000000000      11.100000000000
218     2   0    16.650000000000       8.325000000000      13.875000000000
219     2   0    19.425000000000       5.550000000000      13.875000000000
220     2   0    19.425000000000       8.325000000000      11.100000000000
221     2   0    16.650000000000       5.550000000000      16.650000000000
222     2   0    16.650000000000       8.325000000000      19.425000000000
223     2   0    19.425000000000       5.550000000000      19.425000000000
224     2   0    19.425000000000       8.325000000000      16.650000000000
225     2   0    16.650000000000      11.100000000000       0.000000000000
226     2   0    16.650000000000      13.875000000000       2.775000000000
227     2   0    19.425000000000      11.100000000000       2.775000000000
228     2   0    19.425000000000      13.875000000000       0.000000000000
229     2   0    16.650000000000      11.100000000000       5.550000000000
230     2   0    16.650000000000      13.875000000000       8.325000000000
231     2   0    19.425000000000      11.100000000000       8.325000000000
232     2   0    19.425000000000      13.875000000000       5.550000000000
233     2   0    16.650000000000      11.100000000000      11.100000000000
234     2   0    16.650000000000      13.875000000000      13.875000000000
235     2   0    19.425000000000      11.100000000000      13.875000000000
236     2   0    19.425000000000      13.875000000000      11.100000000000
237     2   0    16.650000000000      11.100000000000      16.650000000000
238     2   0    16.650000000000      13.875000000000      19.425000000000
239     2   0    19.425000000000      11.100000000000      19.425000000000
240     2   0    19.425000000000      13.875000000000      16.650000000000
241     2   0    16.650000000000      16.650000000000       0.000000000000
242     2   0    16.650000000000      19.425000000000       2.775000000000
243     2   0    19.425000000000      16.650000000000       2.775000000000
244     2   0    19.425000000000      19.425000000000       0.000000000000
245     2   0    16.650000000000      16.650000000000       5.550000000000
246     2   0    16.650000000000      19.425000000000       8.325000000000
247     2   0    19.425000000000      16.650000000000       8.325000000000
248     2   0    19.425000000000      19.425000000000       5.550000000000
249     2   0    16.650000000000      16.650000000000      11.100000000000
250     2   0    16.650000000000      19.425000000000      13.875000000000
251     2   0    19.425000000000      16.650000000000      13.875000000000
252     2   0    19.425000000000      19.425000000000      11.100000000000
253     2   0    16.650000000000      16.650000000000      16.650000000000
254     2   0    16.650000000000      19.425000000000      19.425000000000
255     2   0    19.425000000000      16.650000000000      19.425000000000
256     2   0    19.425000000000      19.425000000000      16.650000000000
257     1   0     1.387500000000       1.387500000000       1.387500000000
258     1   0     1.387500000000       1.387500000000       4.162500000000
259     1   0     1.387500000000       4.162500000000       1.387500000000
260     1   0     4.162500000000       4.162500000000       1.387500000000
261     1   0     1.387500000000       4.162500000000       4.162500000000
262     1   0     4.162500000000       4.162500000000       4.162500000000
263     1   0     1.387500000000       1.387500000000       6.937500000000
264     1   0     1.387500000000       1.387500000000       9.712500000000
265     1   0     1.387500000000       4.162500000000       6.937500000000
266     1   0     4.162500000000       1.387500000000       6.937500000000
267     1   0     4.162500000000       4.162500000000       6.937500000000
268     1   0     4.162500000000       1.387500000000       9.712500000000
269     1   0     1.387500000000       4.162500000000       9.712500000000
270     1   0     4.162500000000       4.162500000000       9.712500000000
271     1   0     1.387500000000       1.387500000000      12.487500000000
272     1   0     1.387500000000       1.387500000000      15.262500000000
273     1   0     1.387500000000       4.162500000000      12.487500000000
274     1   0     4.162500000000       1.387500000000      12.487500000000
275     1   0     4.162500000000       1.387500000000      15.262500000000
276     1   0     1.387500000000       4.162500000000      15.262500000000
277     1   0     1.387500000000       1.387500000000      18.037500000000
278     1   0     1.387500000000       1.387500000000      20.812500000000
279     1   0     1.387500000000       4.162500000000      18.037500000000
280     1   0     4.162500000000       1.387500000000      18.037500000000
281     1   0     4.162500000000       4.162500000000      18.037500000000
282     1   0     4.162500000000       1.387500000000      20.812500000000
283     1   0     1.387500000000       4.162500000000      20.812500000000
284     1   0     4.162500000000       4.162500000000      20.812500000000
285     1   0     1.387500000000       6.937500000000       1.387500000000
286     1   0     1.387500000000       9.712500000000       1.387500000000
287     1   0     4.162500000000       6.937500000000       1.387500000000
288     1   0     4.162500000000       9.712500000000       1.387500000000
289     1   0     4.162500000000       6.937500000000       4.162500000000
290     1   0     4.162500000000       9.712500000000       4.162500000000
291     1   0     1.387500000000       6.937500000000       9.712500000000
292     1   0     4.162500000000       6.937500000000       6.937500000000
293     1   0     4.162500000000       9.712500000000       6.937500000000
294     1   0     4.162500000000       6.937500000000       9.712500000000
295     1   0     1.387500000000       9.712500000000       9.712500000000
296     1   0     4.162500000000       9.712500000000       9.712500000000
297     1   0     1.387500000000       6.937500000000      12.487500000000
298     1   0     1.387500000000       6.937500000000      15.262500000000
299     1   0     1.387500000000       9.712500000000      12.487500000000
300     1   0     4.162500000000       9.712500000000      12.487500000000
301     1   0     1.387500000000       9.712500000000      15.262500000000
302     1   0     4.162500000000       9.712500000000      15.262500000000
303     1   0     1.387500000000       6.937500000000      18.037500000000
304     1   0     1.387500000000       6.937500000000      20.812500000000
305     1   0     1.387500000000       9.712500000000      18.037500000000
306     1   0     4.162500000000       6.937500000000      18.037500000000
307     1   0     4.162500000000       9.712500000000      18.037500000000
308     1   0     4.162500000000       6.937500000000      20.812500000000
309     1   0     1.387500000000       9.712500000000      20.812500000000
310     1   0     4.162500000000       9.712500000000      20.812500000000
311     1   0     1.387500000000      12.487500000000       1.387500000000
312     1   0     1.387500000000      12.487500000000       4.162500000000
313     1   0     1.387500000000      15.262500000000       1.387500000000
314     1   0     4.162500000000      12.487500000000       1.387500000000
315     1   0     4.162500000000      15.262500000000       1.387500000000
316     1   0     4.162500000000      12.487500000000       4.162500000000
317     1   0     1.387500000000      15.262500000000       4.162500000000
318     1   0     4.162500000000      15.262500000000       4.162500000000
319     1   0     1.387500000000      12.487500000000      12.487500000000
320     1   0     1.387500000000      12.487500000000      15.262500000000
321     1   0     1.387500000000      15.262500000000      12.487500000000
322     1   0     4.162500000000      12.487500000000      12.487500000000
323     1   0     4.162500000000      15.262500000000      12.487500000000
324     1   0     4.162500000000      12.487500000000      15.262500000000
325     1   0     1.387500000000      15.262500000000      15.262500000000
326     1   0     4.162500000000      15.262500000000      15.262500000000
327     1   0     1.387500000000      12.487500000000      18.037500000000
328     1   0     1.387500000000      12.487500000000      20.812500000000
329     1   0     1.387500000000      15.262500000000      18.037500000000
330     1   0     4.162500000000      12.487500000000      18.037500000000
331     1   0     4.162500000000      15.262500000000      18.037500000000
332     1   0     4.162500000000      12.487500000000      20.812500000000
333     1   0     1.387500000000      15.262500000000      20.812500000000
334     1   0     4.162500000000      15.262500000000      20.812500000000
335     1   0     1.387500000000      18.037500000000       1.387500000000
336     1   0     1.387500000000      18.037500000000       4.162500000000
337     1   0     1.387500000000      20.812500000000       1.387500000000
338     1   0     4.162500000000      18.037500000000       1.387500000000
339     1   0     4.162500000000      18.037500000000       4.162500000000
340     1   0     1.387500000000      20.812500000000       4.162500000000
341     1   0     1.387500000000      18.037500000000       6.937500000000
342     1   0     1.387500000000      18.037500000000       9.712500000000
343     1   0     1.387500000000      20.812500000000       6.937500000000
344     1   0     4.162500000000      18.037500000000       6.937500000000
345     1   0     4.162500000000      20.812500000000       6.937500000000
346     1   0     4.162500000000      18.037500000000       9.712500000000
347     1   0     1.387500000000      20.812500000000       9.712500000000
348     1   0     4.162500000000      20.812500000000       9.712500000000
349     1   0     1.387500000000      18.037500000000      12.487500000000
350     1   0     1.387500000000      20.812500000000      12.487500000000
351     1   0     4.162500000000      18.037500000000      12.487500000000
352     1   0     4.162500000000      20.812500000000      12.487500000000
353     1   0     4.162500000000      18.037500000000      15.262500000000
354     1   0     4.162500000000      20.812500000000      15.262500000000
355     1   0     1.387500000000      18.037500000000      20.812500000000
356     1   0     4.162500000000      18.037500000000      18.037500000000
357     1   0     4.162500000000      20.812500000000      18.037500000000
358     1   0     4.162500000000      18.037500000000      20.812500000000
359     1   0     1.387500000000      20.812500000000      20.812500000000
360     1   0     4.162500000000      20.812500000000      20.812500000000
361     1   0     6.937500000000       4.162500000000       1.387500000000
362     1   0     9.712500000000       1.387500000000       1.387500000000
363     1   0     9.712500000000       4.162500000000       1.387500000000
364     1   0     9.712500000000       1.387500000000       4.162500000000
365     1   0     6.937500000000       4.162500000000       4.162500000000
366     1   0     9.712500000000       4.162500000000       4.162500000000
367     1   0     6.937500000000       1.387500000000       6.937500000000
368     1   0     6.937500000000       1.387500000000       9.712500000000
369     1   0     6.937500000000       4.162500000000       6.937500000000
370     1   0     9.712500000000       1.387500000000       6.937500000000
371     1   0     9.712500000000       4.162500000000       6.937500000000
372     1   0     9.712500000000       1.387500000000       9.712500000000
373     1   0     6.937500000000       4.162500000000       9.712500000000
374     1   0     9.712500000000       4.162500000000       9.712500000000
375     1   0     6.937500000000       1.387500000000      12.487500000000
376     1   0     6.937500000000       1.387500000000      15.262500000000
377     1   0     9.712500000000       1.387500000000      12.487500000000
378     1   0     9.712500000000       4.162500000000      12.487500000000
379     1   0     9.712500000000       1.387500000000      15.262500000000
380     1   0     9.712500000000       4.162500000000      15.262500000000
381     1   0     6.937500000000       1.387500000000      18.037500000000
382     1   0     6.937500000000       1.387500000000      20.812500000000
383     1   0     6.937500000000       4.162500000000      18.037500000000
384     1   0     9.712500000000       1.387500000000      18.037500000000
385     1   0     9.712500000000       4.162500000000      18.037500000000
386     1   0     9.712500000000       1.387500000000      20.812500000000
387     1   0     6.937500000000       4.162500000000      20.812500000000
388     1   0     9.712500000000       4.162500000000      20.812500000000
389     1   0     6.937500000000       6.937500000000       1.387500000000
390     1   0     6.937500000000       6.937500000000       4.162500000000
391     1   0     6.937500000000       9.712500000000       1.387500000000
392     1   0     9.712500000000       6.937500000000       4.162500000000
393     1   0     6.937500000000       9.712500000000       4.162500000000
394     1   0     9.712500000000       9.712500000000       4.162500000000
395     1   0     6.937500000000       6.937500000000       6.937500000000
396     1   0     6.937500000000       6.937500000000       9.712500000000
397     1   0     6.937500000000       9.712500000000       6.937500000000
398     1   0     9.712500000000       6.937500000000       6.937500000000
399     1   0     9.712500000000       9.712500000000       6.937500000000
400     1   0     9.712500000000       6.937500000000       9.712500000000
401     1   0     6.937500000000       9.712500000000       9.712500000000
402     1   0     9.712500000000       9.712500000000       9.712500000000
403     1   0     6.937500000000       9.712500000000      12.487500000000
404     1   0     9.712500000000       6.937500000000      12.487500000000
405     1   0     9.712500000000       9.712500000000      12.487500000000
406     1   0     9.712500000000       6.937500000000      15.262500000000
407     1   0     6.937500000000       9.712500000000      15.262500000000
408     1   0     9.712500000000       9.712500000000      15.262500000000
409     1   0     6.937500000000       6.937500000000      18.037500000000
410     1   0     6.937500000000       6.937500000000      20.812500000000
411     1   0     6.937500000000       9.712500000000      18.037500000000
412     1   0     9.712500000000       6.937500000000      18.037500000000
413     1   0     9.712500000000       9.712500000000      18.037500000000
414     1   0     6.937500000000       9.712500000000      20.812500000000
415     1   0     6.937500000000      12.487500000000       1.387500000000
416     1   0     6.937500000000      12.487500000000       4.162500000000
417     1   0     6.937500000000      15.262500000000       1.387500000000
418     1   0     9.712500000000      12.487500000000       1.387500000000
419     1   0     9.712500000000      15.262500000000       1.387500000000
420     1   0     9.712500000000      12.487500000000       4.162500000000
421     1   0     6.937500000000      15.262500000000       4.162500000000
422     1   0     9.712500000000      15.262500000000       4.162500000000
423     1   0     6.937500000000      12.487500000000       6.937500000000
424     1   0     6.937500000000      12.487500000000       9.712500000000
425     1   0     6.937500000000      15.262500000000       6.937500000000
426     1   0     9.712500000000      12.487500000000       6.937500000000
427     1   0     9.712500000000      15.262500000000       6.937500000000
428     1   0     9.712500000000      12.487500000000       9.712500000000
429     1   0     6.937500000000      15.262500000000       9.712500000000
430     1   0     9.712500000000      15.262500000000       9.712500000000
431     1   0     6.937500000000      12.487500000000      12.487500000000
432     1   0     6.937500000000      12.487500000000      15.262500000000
433     1   0     6.937500000000      15.262500000000      12.487500000000
434     1   0     9.712500000000      12.487500000000      12.487500000000
435     1   0     9.712500000000      15.262500000000      12.487500000000
436     1   0     9.712500000000      12.487500000000      15.262500000000
437     1   0     6.937500000000      15.262500000000      15.262500000000
438     1   0     9.712500000000      15.262500000000      15.262500000000
439     1   0     6.937500000000      18.037500000000       1.387500000000
440     1   0     6.937500000000      18.037500000000       4.162500000000
441     1   0     9.712500000000      18.037500000000       1.387500000000
442     1   0     9.712500000000      20.812500000000       1.387500000000
443     1   0     9.712500000000      18.037500000000       4.162500000000
444     1   0     9.712500000000      20.812500000000       4.162500000000
445     1   0     6.937500000000      18.037500000000       6.937500000000
446     1   0     6.937500000000      18.037500000000       9.712500000000
447     1   0     6.937500000000      20.812500000000       6.937500000000
448     1   0     9.712500000000      18.037500000000       6.937500000000
449     1   0     9.712500000000      20.812500000000       6.937500000000
450     1   0     6.937500000000      20.812500000000       9.712500000000
451     1   0     6.937500000000      18.037500000000      12.487500000000
452     1   0     6.937500000000      18.037500000000      15.262500000000
453     1   0     6.937500000000      20.812500000000      12.487500000000
454     1   0     9.712500000000      18.037500000000      15.262500000000
455     1   0     6.937500000000      20.812500000000      15.262500000000
456     1   0     9.712500000000      20.812500000000      15.262500000000
457     1   0     6.937500000000      18.037500000000      18.037500000000
458     1   0     6.937500000000      18.037500000000      20.812500000000
459     1   0     6.937500000000      20.812500000000      18.037500000000
460     1   0     9.712500000000      18.037500000000      18.037500000000
461     1   0     9.712500000000      20.812500000000      18.037500000000
462     1   0     9.712500000000      18.037500000000      20.812500000000
463     1   0     6.937500000000      20.812500000000      20.812500000000
464     1   0     9.712500000000      20.812500000000      20.812500000000
465     1   0    12.487500000000       1.387500000000       1.387500000000
466     1   0    12.487500000000       1.387500000000       4.162500000000
467     1   0    12.487500000000       4.162500000000       1.387500000000
468     1   0    15.262500000000       1.387500000000       1.387500000000
469     1   0    15.262500000000       4.162500000000       1.387500000000
470     1   0    15.262500000000       1.387500000000       4.162500000000
471     1   0    12.487500000000       4.162500000000       4.162500000000
472     1   0    15.262500000000       4.162500000000       4.162500000000
473     1   0    12.487500000000       1.387500000000       6.937500000000
474     1   0    12.487500000000       1.387500000000       9.712500000000
475     1   0    12.487500000000       4.162500000000       6.937500000000
476     1   0    15.262500000000       1.387500000000       6.937500000000
477     1   0    15.262500000000       4.162500000000       6.937500000000
478     1   0    15.262500000000       1.387500000000       9.712500000000
479     1   0    12.487500000000       4.162500000000       9.712500000000
480     1   0    15.262500000000       4.162500000000       9.712500000000
481     1   0    12.487500000000       1.387500000000      12.487500000000
482     1   0    12.487500000000       1.387500000000      15.262500000000
483     1   0    12.487500000000       4.162500000000      12.487500000000
484     1   0    15.262500000000       1.387500000000      12.487500000000
485     1   0    15.262500000000       4.162500000000      12.487500000000
486     1   0    15.262500000000       1.387500000000      15.262500000000
487     1   0    12.487500000000       4.162500000000      15.262500000000
488     1   0    15.262500000000       4.162500000000      15.262500000000
489     1   0    12.487500000000       6.937500000000       4.162500000000
490     1   0    15.262500000000       6.937500000000       1.387500000000
491     1   0    15.262500000000       9.712500000000       1.387500000000
492     1   0    15.262500000000       6.937500000000       4.162500000000
493     1   0    12.487500000000       9.712500000000       4.162500000000
494     1   0    15.262500000000       9.712500000000       4.162500000000
495     1   0    12.487500000000       6.937500000000       6.937500000000
496     1   0    12.487500000000       6.937500000000       9.712500000000
497     1   0    12.487500000000       9.712500000000       6.937500000000
498     1   0    15.262500000000       6.937500000000       6.937500000000
499     1   0    15.262500000000       9.712500000000       6.937500000000
500     1   0    15.262500000000       6.937500000000       9.712500000000
501     1   0    12.487500000000       9.712500000000       9.712500000000
502     1   0    15.262500000000       9.712500000000       9.712500000000
503     1   0    12.487500000000       6.937500000000      12.487500000000
504     1   0    12.487500000000       6.937500000000      15.262500000000
505     1   0    12.487500000000       9.712500000000      12.487500000000
506     1   0    15.262500000000       6.937500000000      12.487500000000
507     1   0    15.262500000000       6.937500000000      15.262500000000
508     1   0    12.487500000000       9.712500000000      15.262500000000
509     1   0    12.487500000000       6.937500000000      18.037500000000
510     1   0    12.487500000000       9.712500000000      18.037500000000
511     1   0    15.262500000000       6.937500000000      18.037500000000
512     1   0    15.262500000000       9.712500000000      18.037500000000
513     1   0    15.262500000000       6.937500000000      20.812500000000
514     1   0    15.262500000000       9.712500000000      20.812500000000
515     1   0    12.487500000000      12.487500000000       1.387500000000
516     1   0    12.487500000000      12.487500000000       4.162500000000
517     1   0    12.487500000000      15.262500000000       1.387500000000
518     1   0    15.262500000000      12.487500000000       1.387500000000
519     1   0    15.262500000000      12.487500000000       4.162500000000
520     1   0    12.487500000000      15.262500000000       4.162500000000
521     1   0    12.487500000000      12.487500000000       6.937500000000
522     1   0    12.487500000000      12.487500000000       9.712500000000
523     1   0    12.487500000000      15.262500000000       6.937500000000
524     1   0    15.262500000000      12.487500000000       6.937500000000
525     1   0    15.262500000000      15.262500000000       6.937500000000
526     1   0    15.262500000000      12.487500000000       9.712500000000
527     1   0    12.487500000000      15.262500000000       9.712500000000
528     1   0    15.262500000000      15.262500000000       9.712500000000
529     1   0    12.487500000000      12.487500000000      12.487500000000
530     1   0    12.487500000000      12.487500000000      15.262500000000
531     1   0    12.487500000000      15.262500000000      12.487500000000
532     1   0    15.262500000000      15.262500000000      12.487500000000
533     1   0    12.487500000000      15.262500000000      15.262500000000
534     1   0    15.262500000000      15.262500000000      15.262500000000
535     1   0    12.487500000000      12.487500000000      18.037500000000
536     1   0    12.487500000000      12.487500000000      20.812500000000
537     1   0    12.487500000000      15.262500000000      18.037500000000
538     1   0    15.262500000000      12.487500000000      18.037500000000
539     1   0    15.262500000000      15.262500000000      18.037500000000
540     1   0    15.262500000000      12.487500000000      20.812500000000
541     1   0    12.487500000000      15.262500000000      20.812500000000
542     1   0    15.262500000000      15.262500000000      20.812500000000
543     1   0    12.487500000000      18.037500000000       1.387500000000
544     1   0    12.487500000000      18.037500000000       4.162500000000
545     1   0    12.487500000000      20.812500000000       1.387500000000
546     1   0    15.262500000000      20.812500000000       1.387500000000
547     1   0    12.487500000000      20.812500000000       4.162500000000
548     1   0    15.262500000000      20.812500000000       4.162500000000
549     1   0    12.487500000000      18.037500000000       6.937500000000
550     1   0    12.487500000000      20.812500000000       6.937500000000
551     1   0    15.262500000000      18.037500000000       6.937500000000
552     1   0    15.262500000000      20.812500000000       6.937500000000
553     1   0    15.262500000000      18.037500000000       9.712500000000
554     1   0    15.262500000000      20.812500000000       9.712500000000
555     1   0    12.487500000000      18.037500000000      15.262500000000
556     1   0    15.262500000000      18.037500000000      12.487500000000
557     1   0    15.262500000000      20.812500000000      12.487500000000
558     1   0    15.262500000000      18.037500000000      15.262500000000
559     1   0    12.487500000000      20.812500000000      15.262500000000
560     1   0    15.262500000000      20.812500000000      15.262500000000
561     1   0    12.487500000000      18.037500000000      18.037500000000
562     1   0    12.487500000000      18.037500000000      20.812500000000
563     1   0    12.487500000000      20.812500000000      18.037500000000
564     1   0    15.262500000000      18.037500000000      18.037500000000
565     1   0    15.262500000000      20.812500000000      18.037500000000
566     1   0    15.262500000000      18.037500000000      20.812500000000
567     1   0    12.487500000000      20.812500000000      20.812500000000
568     1   0    15.262500000000      20.812500000000      20.812500000000
569     1   0    18.037500000000       1.387500000000       1.387500000000
570     1   0    18.037500000000       1.387500000000       4.162500000000
571     1   0    18.037500000000       4.162500000000       1.387500000000
572     1   0    20.812500000000       1.387500000000       1.387500000000
573     1   0    20.812500000000       4.162500000000       1.387500000000
574     1   0    20.812500000000       1.387500000000       4.162500000000
575     1   0    18.037500000000       4.162500000000       4.162500000000
576     1   0    20.812500000000       4.162500000000       4.162500000000
577     1   0    18.037500000000       1.387500000000      12.487500000000
578     1   0    18.037500000000       1.387500000000      15.262500000000
579     1   0    18.037500000000       4.162500000000      12.487500000000
580     1   0    20.812500000000       1.387500000000      12.487500000000
581     1   0    20.812500000000       4.162500000000      12.487500000000
582     1   0    20.812500000000       1.387500000000      15.262500000000
583     1   0    18.037500000000       4.162500000000      15.262500000000
584     1   0    20.812500000000       4.162500000000      15.262500000000
585     1   0    18.037500000000       1.387500000000      18.037500000000
586     1   0    18.037500000000       1.387500000000      20.812500000000
587     1   0    18.037500000000       4.162500000000      18.037500000000
588     1   0    20.812500000000       1.387500000000      18.037500000000
589     1   0    20.812500000000       4.162500000000      18.037500000000
590     1   0    20.812500000000       1.387500000000      20.812500000000
591     1   0    18.037500000000       4.162500000000      20.812500000000
592     1   0    20.812500000000       4.162500000000      20.812500000000
593     1   0    18.037500000000       6.937500000000       1.387500000000
594     1   0    18.037500000000       6.937500000000       4.162500000000
595     1   0    18.037500000000       9.712500000000       1.387500000000
596     1   0    20.812500000000       6.937500000000       1.387500000000
597     1   0    20.812500000000       9.712500000000       1.387500000000
598     1   0    18.037500000000       9.712500000000       4.162500000000
599     1   0    18.037500000000       6.937500000000       6.937500000000
600     1   0    18.037500000000       6.937500000000       9.712500000000
601     1   0    18.037500000000       9.712500000000       6.937500000000
602     1   0    20.812500000000       6.937500000000       9.712500000000
603     1   0    18.037500000000       9.712500000000       9.712500000000
604     1   0    20.812500000000       9.712500000000       9.712500000000
605     1   0    18.037500000000       6.937500000000      12.487500000000
606     1   0    18.037500000000       6.937500000000      15.262500000000
607     1   0    20.812500000000       6.937500000000      12.487500000000
608     1   0    20.812500000000       9.712500000000      12.487500000000
609     1   0    20.812500000000       6.937500000000      15.262500000000
610     1   0    20.812500000000       9.712500000000      15.262500000000
611     1   0    18.037500000000       6.937500000000      18.037500000000
612     1   0    18.037500000000       6.937500000000      20.812500000000
613     1   0    18.037500000000       9.712500000000      18.037500000000
614     1   0    20.812500000000       6.937500000000      18.037500000000
615     1   0    20.812500000000       9.712500000000      18.037500000000
616     1   0    20.812500000000       6.937500000000      20.812500000000
617     1   0    18.037500000000       9.712500000000      20.812500000000
618     1   0    20.812500000000       9.712500000000      20.812500000000
619     1   0    18.037500000000      12.487500000000       1.387500000000
620     1   0    18.037500000000      12.487500000000       4.162500000000
621     1   0    20.812500000000      12.487500000000       1.387500000000
622     1   0    20.812500000000      15.262500000000       1.387500000000
623     1   0    20.812500000000      12.487500000000       4.162500000000
624     1   0    20.812500000000      15.262500000000       4.162500000000
625     1   0    18.037500000000      12.487500000000       6.937500000000
626     1   0    18.037500000000      12.487500000000       9.712500000000
627     1   0    18.037500000000      15.262500000000       6.937500000000
628     1   0    20.812500000000      12.487500000000       6.937500000000
629     1   0    20.812500000000      15.262500000000       6.937500000000
630     1   0    20.812500000000      12.487500000000       9.712500000000
631     1   0    18.037500000000      15.262500000000       9.712500000000
632     1   0    20.812500000000      15.262500000000       9.712500000000
633     1   0    18.037500000000      15.262500000000      12.487500000000
634     1   0    20.812500000000      12.487500000000      12.487500000000
635     1   0    20.812500000000      15.262500000000      12.487500000000
636     1   0    20.812500000000      12.487500000000      15.262500000000
637     1   0    18.037500000000      15.262500000000      15.262500000000
638     1   0    20.812500000000      15.262500000000      15.262500000000
639     1   0    18.037500000000      12.487500000000      18.037500000000
640     1   0    18.037500000000      12.487500000000      20.812500000000
641     1   0    18.037500000000      15.262500000000      18.037500000000
642     1   0    20.812500000000      12.487500000000      18.037500000000
643     1   0    20.812500000000      15.262500000000      18.037500000000
644     1   0    20.812500000000      12.487500000000      20.812500000000
645     1   0    18.037500000000      15.262500000000      20.812500000000
646     1   0    20.812500000000      15.262500000000      20.812500000000
647     1   0    18.037500000000      20.812500000000       1.387500000000
648     1   0    20.812500000000      18.037500000000       1.387500000000
649     1   0    20.812500000000      20.812500000000       1.387500000000
650     1   0    20.812500000000      18.037500000000       4.162500000000
651     1   0    18.037500000000      20.812500000000       4.162500000000
652     1   0    20.812500000000      20.812500000000       4.162500000000
653     1   0    18.037500000000      18.037500000000       6.937500000000
654     1   0    18.037500000000      18.037500000000       9.712500000000
655     1   0    18.037500000000      20.812500000000       6.937500000000
656     1   0    20.812500000000      18.037500000000       6.937500000000
657     1   0    20.812500000000      20.812500000000       6.937500000000
658     1   0    20.812500000000      18.037500000000       9.712500000000
659     1   0    18.037500000000      20.812500000000       9.712500000000
660     1   0    20.812500000000      20.812500000000       9.712500000000
661     1   0    18.037500000000      18.037500000000      12.487500000000
662     1   0    18.037500000000      18.037500000000      15.262500000000
663     1   0    18.037500000000      20.812500000000      12.487500000000
664     1   0    20.812500000000      18.037500000000      12.487500000000
665     1   0    20.812500000000      20.812500000000      12.487500000000
666     1   0    18.037500000000      20.812500000000      15.262500000000
667     1   0    18.037500000000      18.037500000000      18.037500000000
668     1   0    18.037500000000      18.037500000000      20.812500000000
669     1   0    18.037500000000      20.812500000000      18.037500000000
670     1   0    20.812500000000      18.037500000000      20.812500000000
671     1   0    18.037500000000      20.812500000000      20.812500000000
672     1   0    20.812500000000      20.812500000000      20.812500000000
673     1   0    18.981000000000       2.775000000000       8.325000000000
674     1   0    21.312000000000       3.496500000000       6.438000000000
675     1   0    21.312000000000       4.662000000000       9.046500000000
676     1   0    21.312000000000       0.888000000000       7.603500000000
677     1   0    21.312000000000       2.053500000000      10.212000000000
678     1   0    18.981000000000       0.721500000000       6.271500000000
679     1   0    18.981000000000       4.828500000000       6.271500000000
680     1   0    18.981000000000       0.721500000000      10.378500000000
681     1   0    18.981000000000       4.828500000000      10.378500000000
682     1   0    17.205000000000       2.775000000000       6.105000000000
683     1   0    17.205000000000       2.775000000000      10.545000000000
684     1   0    17.205000000000       0.555000000000       8.325000000000
685     1   0    17.205000000000       4.995000000000       8.325000000000
686     1   0    14.319000000000       2.775000000000      19.425000000000
687     1   0    11.988000000000       3.496500000000      21.312000000000
688     1   0    11.988000000000       0.888000000000      20.146500000000
689     1   0    11.988000000000       4.662000000000      18.703500000000
690     1   0    11.988000000000       2.053500000000      17.538000000000
691     1   0    14.319000000000       4.828500000000      21.478500000000
692     1   0    14.319000000000       0.721500000000      21.478500000000
693     1   0    14.319000000000       4.828500000000      17.371500000000
694     1   0    14.319000000000       0.721500000000      17.371500000000
695     1   0    16.095000000000       2.775000000000      21.645000000000
696     1   0    16.095000000000       2.775000000000      17.205000000000
697     1   0    16.095000000000       4.995000000000      19.425000000000
698     1   0    16.095000000000       0.555000000000      19.425000000000
699     1   0     7.881000000000      13.875000000000      19.425000000000
700     1   0    10.212000000000      14.596500000000      17.538000000000
701     1   0    10.212000000000      15.762000000000      20.146500000000
702     1   0    10.212000000000      11.988000000000      18.703500000000
703     1   0    10.212000000000      13.153500000000      21.312000000000
704     1   0     7.881000000000      11.821500000000      17.371500000000
705     1   0     7.881000000000      15.928500000000      17.371500000000
706     1   0     7.881000000000      11.821500000000      21.478500000000
707     1   0     7.881000000000      15.928500000000      21.478500000000
708     1   0     6.105000000000      13.875000000000      17.205000000000
709     1   0     6.105000000000      13.875000000000      21.645000000000
710     1   0     6.105000000000      11.655000000000      19.425000000000
711     1   0     6.105000000000      16.095000000000      19.425000000000
712     1   0     3.219000000000      13.875000000000       8.325000000000
713     1   0     0.888000000000      14.596500000000      10.212000000000
714     1   0     0.888000000000      11.988000000000       9.046500000000
715     1   0     0.888000000000      15.762000000000       7.603500000000
716     1   0     0.888000000000      13.153500000000       6.438000000000
717     1   0     3.219000000000      15.928500000000      10.378500000000
718     1   0     3.219000000000      11.821500000000      10.378500000000
719     1   0     3.219000000000      15.928500000000       6.271500000000
720     1   0     3.219000000000      11.821500000000       6.271500000000
721     1   0     4.995000000000      13.875000000000      10.545000000000
722     1   0     4.995000000000      13.875000000000       6.105000000000
723     1   0     4.995000000000      16.095000000000       8.325000000000
724     1   0     4.995000000000      11.655000000000       8.325000000000
725     1   0    16.650000000000      17.094000000000       2.775000000000
726     1   0    18.537000000000      14.763000000000       3.496500000000
727     1   0    17.371500000000      14.763000000000       0.888000000000
728     1   0    15.928500000000      14.763000000000       4.662000000000
729     1   0    14.763000000000      14.763000000000       2.053500000000
730     1   0    18.703500000000      17.094000000000       4.828500000000
731     1   0    18.703500000000      17.094000000000       0.721500000000
732     1   0    14.596500000000      17.094000000000       4.828500000000
733     1   0    14.596500000000      17.094000000000       0.721500000000
734     1   0    18.870000000000      18.870000000000       2.775000000000
735     1   0    14.430000000000      18.870000000000       2.775000000000
736     1   0    16.650000000000      18.870000000000       4.995000000000
737     1   0    16.650000000000      18.870000000000       0.555000000000
738     1   0    16.650000000000      10.656000000000      13.875000000000
739     1   0    14.763000000000      12.987000000000      14.596500000000
740     1   0    17.371500000000      12.987000000000      15.762000000000
741     1   0    15.928500000000      12.987000000000      11.988000000000
742     1   0    18.537000000000      12.987000000000      13.153500000000
743     1   0    14.596500000000      10.656000000000      11.821500000000
744     1   0    14.596500000000      10.656000000000      15.928500000000
745     1   0    18.703500000000      10.656000000000      11.821500000000
746     1   0    18.703500000000      10.656000000000      15.928500000000
747     1   0    14.430000000000       8.880000000000      13.875000000000
748     1   0    18.870000000000       8.880000000000      13.875000000000
749     1   0    16.650000000000       8.880000000000      11.655000000000
750     1   0    16.650000000000       8.880000000000      16.095000000000
751     1   0     5.550000000000       5.994000000000      13.875000000000
752     1   0     7.437000000000       3.663000000000      14.596500000000
753     1   0     6.271500000000       3.663000000000      11.988000000000
754     1   0     4.828500000000       3.663000000000      15.762000000000
755     1   0     3.663000000000       3.663000000000      13.153500000000
756     1   0     7.603500000000       5.994000000000      15.928500000000
757     1   0     7.603500000000       5.994000000000      11.821500000000
758     1   0     3.496500000000       5.994000000000      15.928500000000
759     1   0     3.496500000000       5.994000000000      11.821500000000
760     1   0     7.770000000000       7.770000000000      13.875000000000
761     1   0     3.330000000000       7.770000000000      13.875000000000
762     1   0     5.550000000000       7.770000000000      16.095000000000
763     1   0     5.550000000000       7.770000000000      11.655000000000
764     1   0     5.550000000000      21.756000000000       2.775000000000
765     1   0     3.663000000000       1.887000000000       3.496500000000
766     1   0     6.271500000000       1.887000000000       4.662000000000
767     1   0     4.828500000000       1.887000000000       0.888000000000
768     1   0     7.437000000000       1.887000000000       2.053500000000
769     1   0     3.496500000000      21.756000000000       0.721500000000
770     1   0     3.496500000000      21.756000000000       4.828500000000
771     1   0     7.603500000000      21.756000000000       0.721500000000
772     1   0     7.603500000000      21.756000000000       4.828500000000
773     1   0     3.330000000000      19.980000000000       2.775000000000
774     1   0     7.770000000000      19.980000000000       2.775000000000
775     1   0     5.550000000000      19.980000000000       0.555000000000
776     1   0     5.550000000000      19.980000000000       4.995000000000
777     1   0     0.000000000000      19.425000000000      16.650000000000
778     1   0     0.000000000000      21.517350000000      14.557650000000
779     1   0    20.107650000000      19.425000000000      14.557650000000
780     1   0     2.092350000000      19.425000000000      14.557650000000
781     1   0     0.000000000000      17.332650000000      14.557650000000
782     1   0     2.092350000000      21.517350000000      16.650000000000
783     1   0    20.107650000000      21.517350000000      16.650000000000
784     1   0     2.092350000000      17.332650000000      16.650000000000
785     1   0    20.107650000000      17.332650000000      16.650000000000
786     1   0     0.000000000000      21.517350000000      18.742350000000
787     1   0     0.000000000000      17.332650000000      18.742350000000
788     1   0     2.092350000000      19.425000000000      18.742350000000
789     1   0    20.107650000000      19.425000000000      18.742350000000
790     1   0    11.100000000000      19.425000000000      11.100000000000
791     1   0    11.100000000000      21.517350000000       9.007650000000
792     1   0     9.007650000000      19.425000000000       9.007650000000
793     1   0    13.192350000000      19.425000000000       9.007650000000
794     1   0    11.100000000000      17.332650000000       9.007650000000
795     1   0    13.192350000000      21.517350000000      11.100000000000
796     1   0     9.007650000000      21.517350000000      11.100000000000
797     1   0    13.192350000000      17.332650000000      11.100000000000
798     1   0     9.007650000000      17.332650000000      11.100000000000
799     1   0    11.100000000000      21.517350000000      13.192350000000
800     1   0    11.100000000000      17.332650000000      13.192350000000
801     1   0    13.192350000000      19.425000000000      13.192350000000
802     1   0     9.007650000000      19.425000000000      13.192350000000
803     1   0    11.100000000000       8.325000000000       0.000000000000
804     1   0    11.100000000000      10.417350000000      20.107650000000
805     1   0     9.007650000000       8.325000000000      20.107650000000
806     1   0    13.192350000000       8.325000000000      20.107650000000
807     1   0    11.100000000000       6.232650000000      20.107650000000
808     1   0    13.192350000000      10.417350000000       0.000000000000
809     1   0     9.007650000000      10.417350000000       0.000000000000
810     1   0    13.192350000000       6.232650000000       0.000000000000
811     1   0     9.007650000000       6.232650000000       0.000000000000
812     1   0    11.100000000000      10.417350000000       2.092350000000
813     1   0    11.100000000000       6.232650000000       2.092350000000
814     1   0    13.192350000000       8.325000000000       2.092350000000
815     1   0     9.007650000000       8.325000000000       2.092350000000
816     1   0     0.000000000000       8.325000000000       5.550000000000
817     1   0     0.000000000000      10.417350000000       3.457650000000
818     1   0    20.107650000000       8.325000000000       3.457650000000
819     1   0     2.092350000000       8.325000000000       3.457650000000
820     1   0     0.000000000000       6.232650000000       3.457650000000
821     1   0     2.092350000000      10.417350000000       5.550000000000
822     1   0    20.107650000000      10.417350000000       5.550000000000
823     1   0     2.092350000000       6.232650000000       5.550000000000
824     1   0    20.107650000000       6.232650000000       5.550000000000
825     1   0     0.000000000000      10.417350000000       7.642350000000
826     1   0     0.000000000000       6.232650000000       7.642350000000
827     1   0     2.092350000000       8.325000000000       7.642350000000
828     1   0    20.107650000000       8.325000000000       7.642350000000
