 
828 atoms
2 atom types
 
    0.0000000000000000    22.1999999999999993 xlo xhi
    0.0000000000000000    22.1999999999999993 ylo yhi
    0.0000000000000000    22.1999999999999993 zlo zhi
    0.0000000000000000     0.0000000000000000     0.0000000000000000 xy xz yz
 
Atoms
 
       1  2       3.344181420290      0.000004440000052      0.000004440000052      0.000004440000052
       2  2       3.344181420290      0.000004440000052      2.775004440000052      2.775004440000052
       3  2       3.344181420290      2.775004440000052      0.000004440000052      2.775004440000052
       4  2       3.344181420290      2.775004440000052      2.775004440000052      0.000004440000052
       5  2       3.344181420290      0.000004440000052      0.000004440000052      5.550004440000052
       6  2       3.344181420290      0.000004440000052      2.775004440000052      8.325004440000052
       7  2       3.344181420290      2.775004440000052      0.000004440000052      8.325004440000052
       8  2       3.344181420290      2.775004440000052      2.775004440000052      5.550004440000052
       9  2       3.344181420290      0.000004440000052      0.000004440000052     11.100004440000053
      10  2       3.344181420290      0.000004440000052      2.775004440000052     13.875004440000053
      11  2       3.344181420290      2.775004440000052      0.000004440000052     13.875004440000053
      12  2       3.344181420290      2.775004440000052      2.775004440000052     11.100004440000053
      13  2       3.344181420290      0.000004440000052      0.000004440000052     16.650004440000053
      14  2       3.344181420290      0.000004440000052      2.775004440000052     19.425004440000052
      15  2       3.344181420290      2.775004440000052      0.000004440000052     19.425004440000052
      16  2       3.344181420290      2.775004440000052      2.775004440000052     16.650004440000053
      17  2       3.344181420290      0.000004440000052      5.550004440000052      0.000004440000052
      18  2       3.344181420290      0.000004440000052      8.325004440000052      2.775004440000052
      19  2       3.344181420290      2.775004440000052      5.550004440000052      2.775004440000052
      20  2       3.344181420290      2.775004440000052      8.325004440000052      0.000004440000052
      21  2       3.344181420290      0.000004440000052      5.550004440000052      5.550004440000052
      22  2       3.344181420290      0.000004440000052      8.325004440000052      8.325004440000052
      23  2       3.344181420290      2.775004440000052      5.550004440000052      8.325004440000052
      24  2       3.344181420290      2.775004440000052      8.325004440000052      5.550004440000052
      25  2       3.344181420290      0.000004440000052      5.550004440000052     11.100004440000053
      26  2       3.344181420290      0.000004440000052      8.325004440000052     13.875004440000053
      27  2       3.344181420290      2.775004440000052      5.550004440000052     13.875004440000053
      28  2       3.344181420290      2.775004440000052      8.325004440000052     11.100004440000053
      29  2       3.344181420290      0.000004440000052      5.550004440000052     16.650004440000053
      30  2       3.344181420290      0.000004440000052      8.325004440000052     19.425004440000052
      31  2       3.344181420290      2.775004440000052      5.550004440000052     19.425004440000052
      32  2       3.344181420290      2.775004440000052      8.325004440000052     16.650004440000053
      33  2       3.344181420290      0.000004440000052     11.100004440000053      0.000004440000052
      34  2       3.344181420290      0.000004440000052     13.875004440000053      2.775004440000052
      35  2       3.344181420290      2.775004440000052     11.100004440000053      2.775004440000052
      36  2       3.344181420290      2.775004440000052     13.875004440000053      0.000004440000052
      37  2       3.344181420290      0.000004440000052     11.100004440000053      5.550004440000052
      38  2       3.344181420290      0.000004440000052     13.875004440000053      8.325004440000052
      39  2       3.344181420290      2.775004440000052     11.100004440000053      8.325004440000052
      40  2       3.344181420290      2.775004440000052     13.875004440000053      5.550004440000052
      41  2       3.344181420290      0.000004440000052     11.100004440000053     11.100004440000053
      42  2       3.344181420290      0.000004440000052     13.875004440000053     13.875004440000053
      43  2       3.344181420290      2.775004440000052     11.100004440000053     13.875004440000053
      44  2       3.344181420290      2.775004440000052     13.875004440000053     11.100004440000053
      45  2       3.344181420290      0.000004440000052     11.100004440000053     16.650004440000053
      46  2       3.344181420290      0.000004440000052     13.875004440000053     19.425004440000052
      47  2       3.344181420290      2.775004440000052     11.100004440000053     19.425004440000052
      48  2       3.344181420290      2.775004440000052     13.875004440000053     16.650004440000053
      49  2       3.344181420290      0.000004440000052     16.650004440000053      0.000004440000052
      50  2       3.344181420290      0.000004440000052     19.425004440000052      2.775004440000052
      51  2       3.344181420290      2.775004440000052     16.650004440000053      2.775004440000052
      52  2       3.344181420290      2.775004440000052     19.425004440000052      0.000004440000052
      53  2       3.344181420290      0.000004440000052     16.650004440000053      5.550004440000052
      54  2       3.344181420290      0.000004440000052     19.425004440000052      8.325004440000052
      55  2       3.344181420290      2.775004440000052     16.650004440000053      8.325004440000052
      56  2       3.344181420290      2.775004440000052     19.425004440000052      5.550004440000052
      57  2       3.344181420290      0.000004440000052     16.650004440000053     11.100004440000053
      58  2       3.344181420290      0.000004440000052     19.425004440000052     13.875004440000053
      59  2       3.344181420290      2.775004440000052     16.650004440000053     13.875004440000053
      60  2       3.344181420290      2.775004440000052     19.425004440000052     11.100004440000053
      61  2       3.344181420290      0.000004440000052     16.650004440000053     16.650004440000053
      62  2       3.344181420290      0.000004440000052     19.425004440000052     19.425004440000052
      63  2       3.344181420290      2.775004440000052     16.650004440000053     19.425004440000052
      64  2       3.344181420290      2.775004440000052     19.425004440000052     16.650004440000053
      65  2       3.344181420290      5.550004440000052      0.000004440000052      0.000004440000052
      66  2       3.344181420290      5.550004440000052      2.775004440000052      2.775004440000052
      67  2       3.344181420290      8.325004440000052      0.000004440000052      2.775004440000052
      68  2       3.344181420290      8.325004440000052      2.775004440000052      0.000004440000052
      69  2       3.344181420290      5.550004440000052      0.000004440000052      5.550004440000052
      70  2       3.344181420290      5.550004440000052      2.775004440000052      8.325004440000052
      71  2       3.344181420290      8.325004440000052      0.000004440000052      8.325004440000052
      72  2       3.344181420290      8.325004440000052      2.775004440000052      5.550004440000052
      73  2       3.344181420290      5.550004440000052      0.000004440000052     11.100004440000053
      74  2       3.344181420290      5.550004440000052      2.775004440000052     13.875004440000053
      75  2       3.344181420290      8.325004440000052      0.000004440000052     13.875004440000053
      76  2       3.344181420290      8.325004440000052      2.775004440000052     11.100004440000053
      77  2       3.344181420290      5.550004440000052      0.000004440000052     16.650004440000053
      78  2       3.344181420290      5.550004440000052      2.775004440000052     19.425004440000052
      79  2       3.344181420290      8.325004440000052      0.000004440000052     19.425004440000052
      80  2       3.344181420290      8.325004440000052      2.775004440000052     16.650004440000053
      81  2       3.344181420290      5.550004440000052      5.550004440000052      0.000004440000052
      82  2       3.344181420290      5.550004440000052      8.325004440000052      2.775004440000052
      83  2       3.344181420290      8.325004440000052      5.550004440000052      2.775004440000052
      84  2       3.344181420290      8.325004440000052      8.325004440000052      0.000004440000052
      85  2       3.344181420290      5.550004440000052      5.550004440000052      5.550004440000052
      86  2       3.344181420290      5.550004440000052      8.325004440000052      8.325004440000052
      87  2       3.344181420290      8.325004440000052      5.550004440000052      8.325004440000052
      88  2       3.344181420290      8.325004440000052      8.325004440000052      5.550004440000052
      89  2       3.344181420290      5.550004440000052      5.550004440000052     11.100004440000053
      90  2       3.344181420290      5.550004440000052      8.325004440000052     13.875004440000053
      91  2       3.344181420290      8.325004440000052      5.550004440000052     13.875004440000053
      92  2       3.344181420290      8.325004440000052      8.325004440000052     11.100004440000053
      93  2       3.344181420290      5.550004440000052      5.550004440000052     16.650004440000053
      94  2       3.344181420290      5.550004440000052      8.325004440000052     19.425004440000052
      95  2       3.344181420290      8.325004440000052      5.550004440000052     19.425004440000052
      96  2       3.344181420290      8.325004440000052      8.325004440000052     16.650004440000053
      97  2       3.344181420290      5.550004440000052     11.100004440000053      0.000004440000052
      98  2       3.344181420290      5.550004440000052     13.875004440000053      2.775004440000052
      99  2       3.344181420290      8.325004440000052     11.100004440000053      2.775004440000052
     100  2       3.344181420290      8.325004440000052     13.875004440000053      0.000004440000052
     101  2       3.344181420290      5.550004440000052     11.100004440000053      5.550004440000052
     102  2       3.344181420290      5.550004440000052     13.875004440000053      8.325004440000052
     103  2       3.344181420290      8.325004440000052     11.100004440000053      8.325004440000052
     104  2       3.344181420290      8.325004440000052     13.875004440000053      5.550004440000052
     105  2       3.344181420290      5.550004440000052     11.100004440000053     11.100004440000053
     106  2       3.344181420290      5.550004440000052     13.875004440000053     13.875004440000053
     107  2       3.344181420290      8.325004440000052     11.100004440000053     13.875004440000053
     108  2       3.344181420290      8.325004440000052     13.875004440000053     11.100004440000053
     109  2       3.344181420290      5.550004440000052     11.100004440000053     16.650004440000053
     110  2       3.344181420290      5.550004440000052     13.875004440000053     19.425004440000052
     111  2       3.344181420290      8.325004440000052     11.100004440000053     19.425004440000052
     112  2       3.344181420290      8.325004440000052     13.875004440000053     16.650004440000053
     113  2       3.344181420290      5.550004440000052     16.650004440000053      0.000004440000052
     114  2       3.344181420290      5.550004440000052     19.425004440000052      2.775004440000052
     115  2       3.344181420290      8.325004440000052     16.650004440000053      2.775004440000052
     116  2       3.344181420290      8.325004440000052     19.425004440000052      0.000004440000052
     117  2       3.344181420290      5.550004440000052     16.650004440000053      5.550004440000052
     118  2       3.344181420290      5.550004440000052     19.425004440000052      8.325004440000052
     119  2       3.344181420290      8.325004440000052     16.650004440000053      8.325004440000052
     120  2       3.344181420290      8.325004440000052     19.425004440000052      5.550004440000052
     121  2       3.344181420290      5.550004440000052     16.650004440000053     11.100004440000053
     122  2       3.344181420290      5.550004440000052     19.425004440000052     13.875004440000053
     123  2       3.344181420290      8.325004440000052     16.650004440000053     13.875004440000053
     124  2       3.344181420290      8.325004440000052     19.425004440000052     11.100004440000053
     125  2       3.344181420290      5.550004440000052     16.650004440000053     16.650004440000053
     126  2       3.344181420290      5.550004440000052     19.425004440000052     19.425004440000052
     127  2       3.344181420290      8.325004440000052     16.650004440000053     19.425004440000052
     128  2       3.344181420290      8.325004440000052     19.425004440000052     16.650004440000053
     129  2       3.344181420290     11.100004440000053      0.000004440000052      0.000004440000052
     130  2       3.344181420290     11.100004440000053      2.775004440000052      2.775004440000052
     131  2       3.344181420290     13.875004440000053      0.000004440000052      2.775004440000052
     132  2       3.344181420290     13.875004440000053      2.775004440000052      0.000004440000052
     133  2       3.344181420290     11.100004440000053      0.000004440000052      5.550004440000052
     134  2       3.344181420290     11.100004440000053      2.775004440000052      8.325004440000052
     135  2       3.344181420290     13.875004440000053      0.000004440000052      8.325004440000052
     136  2       3.344181420290     13.875004440000053      2.775004440000052      5.550004440000052
     137  2       3.344181420290     11.100004440000053      0.000004440000052     11.100004440000053
     138  2       3.344181420290     11.100004440000053      2.775004440000052     13.875004440000053
     139  2       3.344181420290     13.875004440000053      0.000004440000052     13.875004440000053
     140  2       3.344181420290     13.875004440000053      2.775004440000052     11.100004440000053
     141  2       3.344181420290     11.100004440000053      0.000004440000052     16.650004440000053
     142  2       3.344181420290     11.100004440000053      2.775004440000052     19.425004440000052
     143  2       3.344181420290     13.875004440000053      0.000004440000052     19.425004440000052
     144  2       3.344181420290     13.875004440000053      2.775004440000052     16.650004440000053
     145  2       3.344181420290     11.100004440000053      5.550004440000052      0.000004440000052
     146  2       3.344181420290     11.100004440000053      8.325004440000052      2.775004440000052
     147  2       3.344181420290     13.875004440000053      5.550004440000052      2.775004440000052
     148  2       3.344181420290     13.875004440000053      8.325004440000052      0.000004440000052
     149  2       3.344181420290     11.100004440000053      5.550004440000052      5.550004440000052
     150  2       3.344181420290     11.100004440000053      8.325004440000052      8.325004440000052
     151  2       3.344181420290     13.875004440000053      5.550004440000052      8.325004440000052
     152  2       3.344181420290     13.875004440000053      8.325004440000052      5.550004440000052
     153  2       3.344181420290     11.100004440000053      5.550004440000052     11.100004440000053
     154  2       3.344181420290     11.100004440000053      8.325004440000052     13.875004440000053
     155  2       3.344181420290     13.875004440000053      5.550004440000052     13.875004440000053
     156  2       3.344181420290     13.875004440000053      8.325004440000052     11.100004440000053
     157  2       3.344181420290     11.100004440000053      5.550004440000052     16.650004440000053
     158  2       3.344181420290     11.100004440000053      8.325004440000052     19.425004440000052
     159  2       3.344181420290     13.875004440000053      5.550004440000052     19.425004440000052
     160  2       3.344181420290     13.875004440000053      8.325004440000052     16.650004440000053
     161  2       3.344181420290     11.100004440000053     11.100004440000053      0.000004440000052
     162  2       3.344181420290     11.100004440000053     13.875004440000053      2.775004440000052
     163  2       3.344181420290     13.875004440000053     11.100004440000053      2.775004440000052
     164  2       3.344181420290     13.875004440000053     13.875004440000053      0.000004440000052
     165  2       3.344181420290     11.100004440000053     11.100004440000053      5.550004440000052
     166  2       3.344181420290     11.100004440000053     13.875004440000053      8.325004440000052
     167  2       3.344181420290     13.875004440000053     11.100004440000053      8.325004440000052
     168  2       3.344181420290     13.875004440000053     13.875004440000053      5.550004440000052
     169  2       3.344181420290     11.100004440000053     11.100004440000053     11.100004440000053
     170  2       3.344181420290     11.100004440000053     13.875004440000053     13.875004440000053
     171  2       3.344181420290     13.875004440000053     11.100004440000053     13.875004440000053
     172  2       3.344181420290     13.875004440000053     13.875004440000053     11.100004440000053
     173  2       3.344181420290     11.100004440000053     11.100004440000053     16.650004440000053
     174  2       3.344181420290     11.100004440000053     13.875004440000053     19.425004440000052
     175  2       3.344181420290     13.875004440000053     11.100004440000053     19.425004440000052
     176  2       3.344181420290     13.875004440000053     13.875004440000053     16.650004440000053
     177  2       3.344181420290     11.100004440000053     16.650004440000053      0.000004440000052
     178  2       3.344181420290     11.100004440000053     19.425004440000052      2.775004440000052
     179  2       3.344181420290     13.875004440000053     16.650004440000053      2.775004440000052
     180  2       3.344181420290     13.875004440000053     19.425004440000052      0.000004440000052
     181  2       3.344181420290     11.100004440000053     16.650004440000053      5.550004440000052
     182  2       3.344181420290     11.100004440000053     19.425004440000052      8.325004440000052
     183  2       3.344181420290     13.875004440000053     16.650004440000053      8.325004440000052
     184  2       3.344181420290     13.875004440000053     19.425004440000052      5.550004440000052
     185  2       3.344181420290     11.100004440000053     16.650004440000053     11.100004440000053
     186  2       3.344181420290     11.100004440000053     19.425004440000052     13.875004440000053
     187  2       3.344181420290     13.875004440000053     16.650004440000053     13.875004440000053
     188  2       3.344181420290     13.875004440000053     19.425004440000052     11.100004440000053
     189  2       3.344181420290     11.100004440000053     16.650004440000053     16.650004440000053
     190  2       3.344181420290     11.100004440000053     19.425004440000052     19.425004440000052
     191  2       3.344181420290     13.875004440000053     16.650004440000053     19.425004440000052
     192  2       3.344181420290     13.875004440000053     19.425004440000052     16.650004440000053
     193  2       3.344181420290     16.650004440000053      0.000004440000052      0.000004440000052
     194  2       3.344181420290     16.650004440000053      2.775004440000052      2.775004440000052
     195  2       3.344181420290     19.425004440000052      0.000004440000052      2.775004440000052
     196  2       3.344181420290     19.425004440000052      2.775004440000052      0.000004440000052
     197  2       3.344181420290     16.650004440000053      0.000004440000052      5.550004440000052
     198  2       3.344181420290     16.650004440000053      2.775004440000052      8.325004440000052
     199  2       3.344181420290     19.425004440000052      0.000004440000052      8.325004440000052
     200  2       3.344181420290     19.425004440000052      2.775004440000052      5.550004440000052
     201  2       3.344181420290     16.650004440000053      0.000004440000052     11.100004440000053
     202  2       3.344181420290     16.650004440000053      2.775004440000052     13.875004440000053
     203  2       3.344181420290     19.425004440000052      0.000004440000052     13.875004440000053
     204  2       3.344181420290     19.425004440000052      2.775004440000052     11.100004440000053
     205  2       3.344181420290     16.650004440000053      0.000004440000052     16.650004440000053
     206  2       3.344181420290     16.650004440000053      2.775004440000052     19.425004440000052
     207  2       3.344181420290     19.425004440000052      0.000004440000052     19.425004440000052
     208  2       3.344181420290     19.425004440000052      2.775004440000052     16.650004440000053
     209  2       3.344181420290     16.650004440000053      5.550004440000052      0.000004440000052
     210  2       3.344181420290     16.650004440000053      8.325004440000052      2.775004440000052
     211  2       3.344181420290     19.425004440000052      5.550004440000052      2.775004440000052
     212  2       3.344181420290     19.425004440000052      8.325004440000052      0.000004440000052
     213  2       3.344181420290     16.650004440000053      5.550004440000052      5.550004440000052
     214  2       3.344181420290     16.650004440000053      8.325004440000052      8.325004440000052
     215  2       3.344181420290     19.425004440000052      5.550004440000052      8.325004440000052
     216  2       3.344181420290     19.425004440000052      8.325004440000052      5.550004440000052
     217  2       3.344181420290     16.650004440000053      5.550004440000052     11.100004440000053
     218  2       3.344181420290     16.650004440000053      8.325004440000052     13.875004440000053
     219  2       3.344181420290     19.425004440000052      5.550004440000052     13.875004440000053
     220  2       3.344181420290     19.425004440000052      8.325004440000052     11.100004440000053
     221  2       3.344181420290     16.650004440000053      5.550004440000052     16.650004440000053
     222  2       3.344181420290     16.650004440000053      8.325004440000052     19.425004440000052
     223  2       3.344181420290     19.425004440000052      5.550004440000052     19.425004440000052
     224  2       3.344181420290     19.425004440000052      8.325004440000052     16.650004440000053
     225  2       3.344181420290     16.650004440000053     11.100004440000053      0.000004440000052
     226  2       3.344181420290     16.650004440000053     13.875004440000053      2.775004440000052
     227  2       3.344181420290     19.425004440000052     11.100004440000053      2.775004440000052
     228  2       3.344181420290     19.425004440000052     13.875004440000053      0.000004440000052
     229  2       3.344181420290     16.650004440000053     11.100004440000053      5.550004440000052
     230  2       3.344181420290     16.650004440000053     13.875004440000053      8.325004440000052
     231  2       3.344181420290     19.425004440000052     11.100004440000053      8.325004440000052
     232  2       3.344181420290     19.425004440000052     13.875004440000053      5.550004440000052
     233  2       3.344181420290     16.650004440000053     11.100004440000053     11.100004440000053
     234  2       3.344181420290     16.650004440000053     13.875004440000053     13.875004440000053
     235  2       3.344181420290     19.425004440000052     11.100004440000053     13.875004440000053
     236  2       3.344181420290     19.425004440000052     13.875004440000053     11.100004440000053
     237  2       3.344181420290     16.650004440000053     11.100004440000053     16.650004440000053
     238  2       3.344181420290     16.650004440000053     13.875004440000053     19.425004440000052
     239  2       3.344181420290     19.425004440000052     11.100004440000053     19.425004440000052
     240  2       3.344181420290     19.425004440000052     13.875004440000053     16.650004440000053
     241  2       3.344181420290     16.650004440000053     16.650004440000053      0.000004440000052
     242  2       3.344181420290     16.650004440000053     19.425004440000052      2.775004440000052
     243  2       3.344181420290     19.425004440000052     16.650004440000053      2.775004440000052
     244  2       3.344181420290     19.425004440000052     19.425004440000052      0.000004440000052
     245  2       3.344181420290     16.650004440000053     16.650004440000053      5.550004440000052
     246  2       3.344181420290     16.650004440000053     19.425004440000052      8.325004440000052
     247  2       3.344181420290     19.425004440000052     16.650004440000053      8.325004440000052
     248  2       3.344181420290     19.425004440000052     19.425004440000052      5.550004440000052
     249  2       3.344181420290     16.650004440000053     16.650004440000053     11.100004440000053
     250  2       3.344181420290     16.650004440000053     19.425004440000052     13.875004440000053
     251  2       3.344181420290     19.425004440000052     16.650004440000053     13.875004440000053
     252  2       3.344181420290     19.425004440000052     19.425004440000052     11.100004440000053
     253  2       3.344181420290     16.650004440000053     16.650004440000053     16.650004440000053
     254  2       3.344181420290     16.650004440000053     19.425004440000052     19.425004440000052
     255  2       3.344181420290     19.425004440000052     16.650004440000053     19.425004440000052
     256  2       3.344181420290     19.425004440000052     19.425004440000052     16.650004440000053
     257  1      -1.496696579710      1.387504440000052      1.387504440000052      1.387504440000052
     258  1      -1.496696579710      1.387504440000052      1.387504440000052      4.162504440000052
     259  1      -1.496696579710      1.387504440000052      4.162504440000052      1.387504440000052
     260  1      -1.496696579710      4.162504440000052      4.162504440000052      1.387504440000052
     261  1      -1.496696579710      1.387504440000052      4.162504440000052      4.162504440000052
     262  1      -1.496696579710      4.162504440000052      4.162504440000052      4.162504440000052
     263  1      -1.496696579710      1.387504440000052      1.387504440000052      6.937504440000052
     264  1      -1.496696579710      1.387504440000052      1.387504440000052      9.712504440000052
     265  1      -1.496696579710      1.387504440000052      4.162504440000052      6.937504440000052
     266  1      -1.496696579710      4.162504440000052      1.387504440000052      6.937504440000052
     267  1      -1.496696579710      4.162504440000052      4.162504440000052      6.937504440000052
     268  1      -1.496696579710      4.162504440000052      1.387504440000052      9.712504440000052
     269  1      -1.496696579710      1.387504440000052      4.162504440000052      9.712504440000052
     270  1      -1.496696579710      4.162504440000052      4.162504440000052      9.712504440000052
     271  1      -1.496696579710      1.387504440000052      1.387504440000052     12.487504440000052
     272  1      -1.496696579710      1.387504440000052      1.387504440000052     15.262504440000050
     273  1      -1.496696579710      1.387504440000052      4.162504440000052     12.487504440000052
     274  1      -1.496696579710      4.162504440000052      1.387504440000052     12.487504440000052
     275  1      -1.496696579710      4.162504440000052      1.387504440000052     15.262504440000050
     276  1      -1.496696579710      1.387504440000052      4.162504440000052     15.262504440000050
     277  1      -1.496696579710      1.387504440000052      1.387504440000052     18.037504440000049
     278  1      -1.496696579710      1.387504440000052      1.387504440000052     20.812504440000055
     279  1      -1.496696579710      1.387504440000052      4.162504440000052     18.037504440000049
     280  1      -1.496696579710      4.162504440000052      1.387504440000052     18.037504440000049
     281  1      -1.496696579710      4.162504440000052      4.162504440000052     18.037504440000049
     282  1      -1.496696579710      4.162504440000052      1.387504440000052     20.812504440000055
     283  1      -1.496696579710      1.387504440000052      4.162504440000052     20.812504440000055
     284  1      -1.496696579710      4.162504440000052      4.162504440000052     20.812504440000055
     285  1      -1.496696579710      1.387504440000052      6.937504440000052      1.387504440000052
     286  1      -1.496696579710      1.387504440000052      9.712504440000052      1.387504440000052
     287  1      -1.496696579710      4.162504440000052      6.937504440000052      1.387504440000052
     288  1      -1.496696579710      4.162504440000052      9.712504440000052      1.387504440000052
     289  1      -1.496696579710      4.162504440000052      6.937504440000052      4.162504440000052
     290  1      -1.496696579710      4.162504440000052      9.712504440000052      4.162504440000052
     291  1      -1.496696579710      1.387504440000052      6.937504440000052      9.712504440000052
     292  1      -1.496696579710      4.162504440000052      6.937504440000052      6.937504440000052
     293  1      -1.496696579710      4.162504440000052      9.712504440000052      6.937504440000052
     294  1      -1.496696579710      4.162504440000052      6.937504440000052      9.712504440000052
     295  1      -1.496696579710      1.387504440000052      9.712504440000052      9.712504440000052
     296  1      -1.496696579710      4.162504440000052      9.712504440000052      9.712504440000052
     297  1      -1.496696579710      1.387504440000052      6.937504440000052     12.487504440000052
     298  1      -1.496696579710      1.387504440000052      6.937504440000052     15.262504440000050
     299  1      -1.496696579710      1.387504440000052      9.712504440000052     12.487504440000052
     300  1      -1.496696579710      4.162504440000052      9.712504440000052     12.487504440000052
     301  1      -1.496696579710      1.387504440000052      9.712504440000052     15.262504440000050
     302  1      -1.496696579710      4.162504440000052      9.712504440000052     15.262504440000050
     303  1      -1.496696579710      1.387504440000052      6.937504440000052     18.037504440000049
     304  1      -1.496696579710      1.387504440000052      6.937504440000052     20.812504440000055
     305  1      -1.496696579710      1.387504440000052      9.712504440000052     18.037504440000049
     306  1      -1.496696579710      4.162504440000052      6.937504440000052     18.037504440000049
     307  1      -1.496696579710      4.162504440000052      9.712504440000052     18.037504440000049
     308  1      -1.496696579710      4.162504440000052      6.937504440000052     20.812504440000055
     309  1      -1.496696579710      1.387504440000052      9.712504440000052     20.812504440000055
     310  1      -1.496696579710      4.162504440000052      9.712504440000052     20.812504440000055
     311  1      -1.496696579710      1.387504440000052     12.487504440000052      1.387504440000052
     312  1      -1.496696579710      1.387504440000052     12.487504440000052      4.162504440000052
     313  1      -1.496696579710      1.387504440000052     15.262504440000050      1.387504440000052
     314  1      -1.496696579710      4.162504440000052     12.487504440000052      1.387504440000052
     315  1      -1.496696579710      4.162504440000052     15.262504440000050      1.387504440000052
     316  1      -1.496696579710      4.162504440000052     12.487504440000052      4.162504440000052
     317  1      -1.496696579710      1.387504440000052     15.262504440000050      4.162504440000052
     318  1      -1.496696579710      4.162504440000052     15.262504440000050      4.162504440000052
     319  1      -1.496696579710      1.387504440000052     12.487504440000052     12.487504440000052
     320  1      -1.496696579710      1.387504440000052     12.487504440000052     15.262504440000050
     321  1      -1.496696579710      1.387504440000052     15.262504440000050     12.487504440000052
     322  1      -1.496696579710      4.162504440000052     12.487504440000052     12.487504440000052
     323  1      -1.496696579710      4.162504440000052     15.262504440000050     12.487504440000052
     324  1      -1.496696579710      4.162504440000052     12.487504440000052     15.262504440000050
     325  1      -1.496696579710      1.387504440000052     15.262504440000050     15.262504440000050
     326  1      -1.496696579710      4.162504440000052     15.262504440000050     15.262504440000050
     327  1      -1.496696579710      1.387504440000052     12.487504440000052     18.037504440000049
     328  1      -1.496696579710      1.387504440000052     12.487504440000052     20.812504440000055
     329  1      -1.496696579710      1.387504440000052     15.262504440000050     18.037504440000049
     330  1      -1.496696579710      4.162504440000052     12.487504440000052     18.037504440000049
     331  1      -1.496696579710      4.162504440000052     15.262504440000050     18.037504440000049
     332  1      -1.496696579710      4.162504440000052     12.487504440000052     20.812504440000055
     333  1      -1.496696579710      1.387504440000052     15.262504440000050     20.812504440000055
     334  1      -1.496696579710      4.162504440000052     15.262504440000050     20.812504440000055
     335  1      -1.496696579710      1.387504440000052     18.037504440000049      1.387504440000052
     336  1      -1.496696579710      1.387504440000052     18.037504440000049      4.162504440000052
     337  1      -1.496696579710      1.387504440000052     20.812504440000055      1.387504440000052
     338  1      -1.496696579710      4.162504440000052     18.037504440000049      1.387504440000052
     339  1      -1.496696579710      4.162504440000052     18.037504440000049      4.162504440000052
     340  1      -1.496696579710      1.387504440000052     20.812504440000055      4.162504440000052
     341  1      -1.496696579710      1.387504440000052     18.037504440000049      6.937504440000052
     342  1      -1.496696579710      1.387504440000052     18.037504440000049      9.712504440000052
     343  1      -1.496696579710      1.387504440000052     20.812504440000055      6.937504440000052
     344  1      -1.496696579710      4.162504440000052     18.037504440000049      6.937504440000052
     345  1      -1.496696579710      4.162504440000052     20.812504440000055      6.937504440000052
     346  1      -1.496696579710      4.162504440000052     18.037504440000049      9.712504440000052
     347  1      -1.496696579710      1.387504440000052     20.812504440000055      9.712504440000052
     348  1      -1.496696579710      4.162504440000052     20.812504440000055      9.712504440000052
     349  1      -1.496696579710      1.387504440000052     18.037504440000049     12.487504440000052
     350  1      -1.496696579710      1.387504440000052     20.812504440000055     12.487504440000052
     351  1      -1.496696579710      4.162504440000052     18.037504440000049     12.487504440000052
     352  1      -1.496696579710      4.162504440000052     20.812504440000055     12.487504440000052
     353  1      -1.496696579710      4.162504440000052     18.037504440000049     15.262504440000050
     354  1      -1.496696579710      4.162504440000052     20.812504440000055     15.262504440000050
     355  1      -1.496696579710      1.387504440000052     18.037504440000049     20.812504440000055
     356  1      -1.496696579710      4.162504440000052     18.037504440000049     18.037504440000049
     357  1      -1.496696579710      4.162504440000052     20.812504440000055     18.037504440000049
     358  1      -1.496696579710      4.162504440000052     18.037504440000049     20.812504440000055
     359  1      -1.496696579710      1.387504440000052     20.812504440000055     20.812504440000055
     360  1      -1.496696579710      4.162504440000052     20.812504440000055     20.812504440000055
     361  1      -1.496696579710      6.937504440000052      4.162504440000052      1.387504440000052
     362  1      -1.496696579710      9.712504440000052      1.387504440000052      1.387504440000052
     363  1      -1.496696579710      9.712504440000052      4.162504440000052      1.387504440000052
     364  1      -1.496696579710      9.712504440000052      1.387504440000052      4.162504440000052
     365  1      -1.496696579710      6.937504440000052      4.162504440000052      4.162504440000052
     366  1      -1.496696579710      9.712504440000052      4.162504440000052      4.162504440000052
     367  1      -1.496696579710      6.937504440000052      1.387504440000052      6.937504440000052
     368  1      -1.496696579710      6.937504440000052      1.387504440000052      9.712504440000052
     369  1      -1.496696579710      6.937504440000052      4.162504440000052      6.937504440000052
     370  1      -1.496696579710      9.712504440000052      1.387504440000052      6.937504440000052
     371  1      -1.496696579710      9.712504440000052      4.162504440000052      6.937504440000052
     372  1      -1.496696579710      9.712504440000052      1.387504440000052      9.712504440000052
     373  1      -1.496696579710      6.937504440000052      4.162504440000052      9.712504440000052
     374  1      -1.496696579710      9.712504440000052      4.162504440000052      9.712504440000052
     375  1      -1.496696579710      6.937504440000052      1.387504440000052     12.487504440000052
     376  1      -1.496696579710      6.937504440000052      1.387504440000052     15.262504440000050
     377  1      -1.496696579710      9.712504440000052      1.387504440000052     12.487504440000052
     378  1      -1.496696579710      9.712504440000052      4.162504440000052     12.487504440000052
     379  1      -1.496696579710      9.712504440000052      1.387504440000052     15.262504440000050
     380  1      -1.496696579710      9.712504440000052      4.162504440000052     15.262504440000050
     381  1      -1.496696579710      6.937504440000052      1.387504440000052     18.037504440000049
     382  1      -1.496696579710      6.937504440000052      1.387504440000052     20.812504440000055
     383  1      -1.496696579710      6.937504440000052      4.162504440000052     18.037504440000049
     384  1      -1.496696579710      9.712504440000052      1.387504440000052     18.037504440000049
     385  1      -1.496696579710      9.712504440000052      4.162504440000052     18.037504440000049
     386  1      -1.496696579710      9.712504440000052      1.387504440000052     20.812504440000055
     387  1      -1.496696579710      6.937504440000052      4.162504440000052     20.812504440000055
     388  1      -1.496696579710      9.712504440000052      4.162504440000052     20.812504440000055
     389  1      -1.496696579710      6.937504440000052      6.937504440000052      1.387504440000052
     390  1      -1.496696579710      6.937504440000052      6.937504440000052      4.162504440000052
     391  1      -1.496696579710      6.937504440000052      9.712504440000052      1.387504440000052
     392  1      -1.496696579710      9.712504440000052      6.937504440000052      4.162504440000052
     393  1      -1.496696579710      6.937504440000052      9.712504440000052      4.162504440000052
     394  1      -1.496696579710      9.712504440000052      9.712504440000052      4.162504440000052
     395  1      -1.496696579710      6.937504440000052      6.937504440000052      6.937504440000052
     396  1      -1.496696579710      6.937504440000052      6.937504440000052      9.712504440000052
     397  1      -1.496696579710      6.937504440000052      9.712504440000052      6.937504440000052
     398  1      -1.496696579710      9.712504440000052      6.937504440000052      6.937504440000052
     399  1      -1.496696579710      9.712504440000052      9.712504440000052      6.937504440000052
     400  1      -1.496696579710      9.712504440000052      6.937504440000052      9.712504440000052
     401  1      -1.496696579710      6.937504440000052      9.712504440000052      9.712504440000052
     402  1      -1.496696579710      9.712504440000052      9.712504440000052      9.712504440000052
     403  1      -1.496696579710      6.937504440000052      9.712504440000052     12.487504440000052
     404  1      -1.496696579710      9.712504440000052      6.937504440000052     12.487504440000052
     405  1      -1.496696579710      9.712504440000052      9.712504440000052     12.487504440000052
     406  1      -1.496696579710      9.712504440000052      6.937504440000052     15.262504440000050
     407  1      -1.496696579710      6.937504440000052      9.712504440000052     15.262504440000050
     408  1      -1.496696579710      9.712504440000052      9.712504440000052     15.262504440000050
     409  1      -1.496696579710      6.937504440000052      6.937504440000052     18.037504440000049
     410  1      -1.496696579710      6.937504440000052      6.937504440000052     20.812504440000055
     411  1      -1.496696579710      6.937504440000052      9.712504440000052     18.037504440000049
     412  1      -1.496696579710      9.712504440000052      6.937504440000052     18.037504440000049
     413  1      -1.496696579710      9.712504440000052      9.712504440000052     18.037504440000049
     414  1      -1.496696579710      6.937504440000052      9.712504440000052     20.812504440000055
     415  1      -1.496696579710      6.937504440000052     12.487504440000052      1.387504440000052
     416  1      -1.496696579710      6.937504440000052     12.487504440000052      4.162504440000052
     417  1      -1.496696579710      6.937504440000052     15.262504440000050      1.387504440000052
     418  1      -1.496696579710      9.712504440000052     12.487504440000052      1.387504440000052
     419  1      -1.496696579710      9.712504440000052     15.262504440000050      1.387504440000052
     420  1      -1.496696579710      9.712504440000052     12.487504440000052      4.162504440000052
     421  1      -1.496696579710      6.937504440000052     15.262504440000050      4.162504440000052
     422  1      -1.496696579710      9.712504440000052     15.262504440000050      4.162504440000052
     423  1      -1.496696579710      6.937504440000052     12.487504440000052      6.937504440000052
     424  1      -1.496696579710      6.937504440000052     12.487504440000052      9.712504440000052
     425  1      -1.496696579710      6.937504440000052     15.262504440000050      6.937504440000052
     426  1      -1.496696579710      9.712504440000052     12.487504440000052      6.937504440000052
     427  1      -1.496696579710      9.712504440000052     15.262504440000050      6.937504440000052
     428  1      -1.496696579710      9.712504440000052     12.487504440000052      9.712504440000052
     429  1      -1.496696579710      6.937504440000052     15.262504440000050      9.712504440000052
     430  1      -1.496696579710      9.712504440000052     15.262504440000050      9.712504440000052
     431  1      -1.496696579710      6.937504440000052     12.487504440000052     12.487504440000052
     432  1      -1.496696579710      6.937504440000052     12.487504440000052     15.262504440000050
     433  1      -1.496696579710      6.937504440000052     15.262504440000050     12.487504440000052
     434  1      -1.496696579710      9.712504440000052     12.487504440000052     12.487504440000052
     435  1      -1.496696579710      9.712504440000052     15.262504440000050     12.487504440000052
     436  1      -1.496696579710      9.712504440000052     12.487504440000052     15.262504440000050
     437  1      -1.496696579710      6.937504440000052     15.262504440000050     15.262504440000050
     438  1      -1.496696579710      9.712504440000052     15.262504440000050     15.262504440000050
     439  1      -1.496696579710      6.937504440000052     18.037504440000049      1.387504440000052
     440  1      -1.496696579710      6.937504440000052     18.037504440000049      4.162504440000052
     441  1      -1.496696579710      9.712504440000052     18.037504440000049      1.387504440000052
     442  1      -1.496696579710      9.712504440000052     20.812504440000055      1.387504440000052
     443  1      -1.496696579710      9.712504440000052     18.037504440000049      4.162504440000052
     444  1      -1.496696579710      9.712504440000052     20.812504440000055      4.162504440000052
     445  1      -1.496696579710      6.937504440000052     18.037504440000049      6.937504440000052
     446  1      -1.496696579710      6.937504440000052     18.037504440000049      9.712504440000052
     447  1      -1.496696579710      6.937504440000052     20.812504440000055      6.937504440000052
     448  1      -1.496696579710      9.712504440000052     18.037504440000049      6.937504440000052
     449  1      -1.496696579710      9.712504440000052     20.812504440000055      6.937504440000052
     450  1      -1.496696579710      6.937504440000052     20.812504440000055      9.712504440000052
     451  1      -1.496696579710      6.937504440000052     18.037504440000049     12.487504440000052
     452  1      -1.496696579710      6.937504440000052     18.037504440000049     15.262504440000050
     453  1      -1.496696579710      6.937504440000052     20.812504440000055     12.487504440000052
     454  1      -1.496696579710      9.712504440000052     18.037504440000049     15.262504440000050
     455  1      -1.496696579710      6.937504440000052     20.812504440000055     15.262504440000050
     456  1      -1.496696579710      9.712504440000052     20.812504440000055     15.262504440000050
     457  1      -1.496696579710      6.937504440000052     18.037504440000049     18.037504440000049
     458  1      -1.496696579710      6.937504440000052     18.037504440000049     20.812504440000055
     459  1      -1.496696579710      6.937504440000052     20.812504440000055     18.037504440000049
     460  1      -1.496696579710      9.712504440000052     18.037504440000049     18.037504440000049
     461  1      -1.496696579710      9.712504440000052     20.812504440000055     18.037504440000049
     462  1      -1.496696579710      9.712504440000052     18.037504440000049     20.812504440000055
     463  1      -1.496696579710      6.937504440000052     20.812504440000055     20.812504440000055
     464  1      -1.496696579710      9.712504440000052     20.812504440000055     20.812504440000055
     465  1      -1.496696579710     12.487504440000052      1.387504440000052      1.387504440000052
     466  1      -1.496696579710     12.487504440000052      1.387504440000052      4.162504440000052
     467  1      -1.496696579710     12.487504440000052      4.162504440000052      1.387504440000052
     468  1      -1.496696579710     15.262504440000050      1.387504440000052      1.387504440000052
     469  1      -1.496696579710     15.262504440000050      4.162504440000052      1.387504440000052
     470  1      -1.496696579710     15.262504440000050      1.387504440000052      4.162504440000052
     471  1      -1.496696579710     12.487504440000052      4.162504440000052      4.162504440000052
     472  1      -1.496696579710     15.262504440000050      4.162504440000052      4.162504440000052
     473  1      -1.496696579710     12.487504440000052      1.387504440000052      6.937504440000052
     474  1      -1.496696579710     12.487504440000052      1.387504440000052      9.712504440000052
     475  1      -1.496696579710     12.487504440000052      4.162504440000052      6.937504440000052
     476  1      -1.496696579710     15.262504440000050      1.387504440000052      6.937504440000052
     477  1      -1.496696579710     15.262504440000050      4.162504440000052      6.937504440000052
     478  1      -1.496696579710     15.262504440000050      1.387504440000052      9.712504440000052
     479  1      -1.496696579710     12.487504440000052      4.162504440000052      9.712504440000052
     480  1      -1.496696579710     15.262504440000050      4.162504440000052      9.712504440000052
     481  1      -1.496696579710     12.487504440000052      1.387504440000052     12.487504440000052
     482  1      -1.496696579710     12.487504440000052      1.387504440000052     15.262504440000050
     483  1      -1.496696579710     12.487504440000052      4.162504440000052     12.487504440000052
     484  1      -1.496696579710     15.262504440000050      1.387504440000052     12.487504440000052
     485  1      -1.496696579710     15.262504440000050      4.162504440000052     12.487504440000052
     486  1      -1.496696579710     15.262504440000050      1.387504440000052     15.262504440000050
     487  1      -1.496696579710     12.487504440000052      4.162504440000052     15.262504440000050
     488  1      -1.496696579710     15.262504440000050      4.162504440000052     15.262504440000050
     489  1      -1.496696579710     12.487504440000052      6.937504440000052      4.162504440000052
     490  1      -1.496696579710     15.262504440000050      6.937504440000052      1.387504440000052
     491  1      -1.496696579710     15.262504440000050      9.712504440000052      1.387504440000052
     492  1      -1.496696579710     15.262504440000050      6.937504440000052      4.162504440000052
     493  1      -1.496696579710     12.487504440000052      9.712504440000052      4.162504440000052
     494  1      -1.496696579710     15.262504440000050      9.712504440000052      4.162504440000052
     495  1      -1.496696579710     12.487504440000052      6.937504440000052      6.937504440000052
     496  1      -1.496696579710     12.487504440000052      6.937504440000052      9.712504440000052
     497  1      -1.496696579710     12.487504440000052      9.712504440000052      6.937504440000052
     498  1      -1.496696579710     15.262504440000050      6.937504440000052      6.937504440000052
     499  1      -1.496696579710     15.262504440000050      9.712504440000052      6.937504440000052
     500  1      -1.496696579710     15.262504440000050      6.937504440000052      9.712504440000052
     501  1      -1.496696579710     12.487504440000052      9.712504440000052      9.712504440000052
     502  1      -1.496696579710     15.262504440000050      9.712504440000052      9.712504440000052
     503  1      -1.496696579710     12.487504440000052      6.937504440000052     12.487504440000052
     504  1      -1.496696579710     12.487504440000052      6.937504440000052     15.262504440000050
     505  1      -1.496696579710     12.487504440000052      9.712504440000052     12.487504440000052
     506  1      -1.496696579710     15.262504440000050      6.937504440000052     12.487504440000052
     507  1      -1.496696579710     15.262504440000050      6.937504440000052     15.262504440000050
     508  1      -1.496696579710     12.487504440000052      9.712504440000052     15.262504440000050
     509  1      -1.496696579710     12.487504440000052      6.937504440000052     18.037504440000049
     510  1      -1.496696579710     12.487504440000052      9.712504440000052     18.037504440000049
     511  1      -1.496696579710     15.262504440000050      6.937504440000052     18.037504440000049
     512  1      -1.496696579710     15.262504440000050      9.712504440000052     18.037504440000049
     513  1      -1.496696579710     15.262504440000050      6.937504440000052     20.812504440000055
     514  1      -1.496696579710     15.262504440000050      9.712504440000052     20.812504440000055
     515  1      -1.496696579710     12.487504440000052     12.487504440000052      1.387504440000052
     516  1      -1.496696579710     12.487504440000052     12.487504440000052      4.162504440000052
     517  1      -1.496696579710     12.487504440000052     15.262504440000050      1.387504440000052
     518  1      -1.496696579710     15.262504440000050     12.487504440000052      1.387504440000052
     519  1      -1.496696579710     15.262504440000050     12.487504440000052      4.162504440000052
     520  1      -1.496696579710     12.487504440000052     15.262504440000050      4.162504440000052
     521  1      -1.496696579710     12.487504440000052     12.487504440000052      6.937504440000052
     522  1      -1.496696579710     12.487504440000052     12.487504440000052      9.712504440000052
     523  1      -1.496696579710     12.487504440000052     15.262504440000050      6.937504440000052
     524  1      -1.496696579710     15.262504440000050     12.487504440000052      6.937504440000052
     525  1      -1.496696579710     15.262504440000050     15.262504440000050      6.937504440000052
     526  1      -1.496696579710     15.262504440000050     12.487504440000052      9.712504440000052
     527  1      -1.496696579710     12.487504440000052     15.262504440000050      9.712504440000052
     528  1      -1.496696579710     15.262504440000050     15.262504440000050      9.712504440000052
     529  1      -1.496696579710     12.487504440000052     12.487504440000052     12.487504440000052
     530  1      -1.496696579710     12.487504440000052     12.487504440000052     15.262504440000050
     531  1      -1.496696579710     12.487504440000052     15.262504440000050     12.487504440000052
     532  1      -1.496696579710     15.262504440000050     15.262504440000050     12.487504440000052
     533  1      -1.496696579710     12.487504440000052     15.262504440000050     15.262504440000050
     534  1      -1.496696579710     15.262504440000050     15.262504440000050     15.262504440000050
     535  1      -1.496696579710     12.487504440000052     12.487504440000052     18.037504440000049
     536  1      -1.496696579710     12.487504440000052     12.487504440000052     20.812504440000055
     537  1      -1.496696579710     12.487504440000052     15.262504440000050     18.037504440000049
     538  1      -1.496696579710     15.262504440000050     12.487504440000052     18.037504440000049
     539  1      -1.496696579710     15.262504440000050     15.262504440000050     18.037504440000049
     540  1      -1.496696579710     15.262504440000050     12.487504440000052     20.812504440000055
     541  1      -1.496696579710     12.487504440000052     15.262504440000050     20.812504440000055
     542  1      -1.496696579710     15.262504440000050     15.262504440000050     20.812504440000055
     543  1      -1.496696579710     12.487504440000052     18.037504440000049      1.387504440000052
     544  1      -1.496696579710     12.487504440000052     18.037504440000049      4.162504440000052
     545  1      -1.496696579710     12.487504440000052     20.812504440000055      1.387504440000052
     546  1      -1.496696579710     15.262504440000050     20.812504440000055      1.387504440000052
     547  1      -1.496696579710     12.487504440000052     20.812504440000055      4.162504440000052
     548  1      -1.496696579710     15.262504440000050     20.812504440000055      4.162504440000052
     549  1      -1.496696579710     12.487504440000052     18.037504440000049      6.937504440000052
     550  1      -1.496696579710     12.487504440000052     20.812504440000055      6.937504440000052
     551  1      -1.496696579710     15.262504440000050     18.037504440000049      6.937504440000052
     552  1      -1.496696579710     15.262504440000050     20.812504440000055      6.937504440000052
     553  1      -1.496696579710     15.262504440000050     18.037504440000049      9.712504440000052
     554  1      -1.496696579710     15.262504440000050     20.812504440000055      9.712504440000052
     555  1      -1.496696579710     12.487504440000052     18.037504440000049     15.262504440000050
     556  1      -1.496696579710     15.262504440000050     18.037504440000049     12.487504440000052
     557  1      -1.496696579710     15.262504440000050     20.812504440000055     12.487504440000052
     558  1      -1.496696579710     15.262504440000050     18.037504440000049     15.262504440000050
     559  1      -1.496696579710     12.487504440000052     20.812504440000055     15.262504440000050
     560  1      -1.496696579710     15.262504440000050     20.812504440000055     15.262504440000050
     561  1      -1.496696579710     12.487504440000052     18.037504440000049     18.037504440000049
     562  1      -1.496696579710     12.487504440000052     18.037504440000049     20.812504440000055
     563  1      -1.496696579710     12.487504440000052     20.812504440000055     18.037504440000049
     564  1      -1.496696579710     15.262504440000050     18.037504440000049     18.037504440000049
     565  1      -1.496696579710     15.262504440000050     20.812504440000055     18.037504440000049
     566  1      -1.496696579710     15.262504440000050     18.037504440000049     20.812504440000055
     567  1      -1.496696579710     12.487504440000052     20.812504440000055     20.812504440000055
     568  1      -1.496696579710     15.262504440000050     20.812504440000055     20.812504440000055
     569  1      -1.496696579710     18.037504440000049      1.387504440000052      1.387504440000052
     570  1      -1.496696579710     18.037504440000049      1.387504440000052      4.162504440000052
     571  1      -1.496696579710     18.037504440000049      4.162504440000052      1.387504440000052
     572  1      -1.496696579710     20.812504440000055      1.387504440000052      1.387504440000052
     573  1      -1.496696579710     20.812504440000055      4.162504440000052      1.387504440000052
     574  1      -1.496696579710     20.812504440000055      1.387504440000052      4.162504440000052
     575  1      -1.496696579710     18.037504440000049      4.162504440000052      4.162504440000052
     576  1      -1.496696579710     20.812504440000055      4.162504440000052      4.162504440000052
     577  1      -1.496696579710     18.037504440000049      1.387504440000052     12.487504440000052
     578  1      -1.496696579710     18.037504440000049      1.387504440000052     15.262504440000050
     579  1      -1.496696579710     18.037504440000049      4.162504440000052     12.487504440000052
     580  1      -1.496696579710     20.812504440000055      1.387504440000052     12.487504440000052
     581  1      -1.496696579710     20.812504440000055      4.162504440000052     12.487504440000052
     582  1      -1.496696579710     20.812504440000055      1.387504440000052     15.262504440000050
     583  1      -1.496696579710     18.037504440000049      4.162504440000052     15.262504440000050
     584  1      -1.496696579710     20.812504440000055      4.162504440000052     15.262504440000050
     585  1      -1.496696579710     18.037504440000049      1.387504440000052     18.037504440000049
     586  1      -1.496696579710     18.037504440000049      1.387504440000052     20.812504440000055
     587  1      -1.496696579710     18.037504440000049      4.162504440000052     18.037504440000049
     588  1      -1.496696579710     20.812504440000055      1.387504440000052     18.037504440000049
     589  1      -1.496696579710     20.812504440000055      4.162504440000052     18.037504440000049
     590  1      -1.496696579710     20.812504440000055      1.387504440000052     20.812504440000055
     591  1      -1.496696579710     18.037504440000049      4.162504440000052     20.812504440000055
     592  1      -1.496696579710     20.812504440000055      4.162504440000052     20.812504440000055
     593  1      -1.496696579710     18.037504440000049      6.937504440000052      1.387504440000052
     594  1      -1.496696579710     18.037504440000049      6.937504440000052      4.162504440000052
     595  1      -1.496696579710     18.037504440000049      9.712504440000052      1.387504440000052
     596  1      -1.496696579710     20.812504440000055      6.937504440000052      1.387504440000052
     597  1      -1.496696579710     20.812504440000055      9.712504440000052      1.387504440000052
     598  1      -1.496696579710     18.037504440000049      9.712504440000052      4.162504440000052
     599  1      -1.496696579710     18.037504440000049      6.937504440000052      6.937504440000052
     600  1      -1.496696579710     18.037504440000049      6.937504440000052      9.712504440000052
     601  1      -1.496696579710     18.037504440000049      9.712504440000052      6.937504440000052
     602  1      -1.496696579710     20.812504440000055      6.937504440000052      9.712504440000052
     603  1      -1.496696579710     18.037504440000049      9.712504440000052      9.712504440000052
     604  1      -1.496696579710     20.812504440000055      9.712504440000052      9.712504440000052
     605  1      -1.496696579710     18.037504440000049      6.937504440000052     12.487504440000052
     606  1      -1.496696579710     18.037504440000049      6.937504440000052     15.262504440000050
     607  1      -1.496696579710     20.812504440000055      6.937504440000052     12.487504440000052
     608  1      -1.496696579710     20.812504440000055      9.712504440000052     12.487504440000052
     609  1      -1.496696579710     20.812504440000055      6.937504440000052     15.262504440000050
     610  1      -1.496696579710     20.812504440000055      9.712504440000052     15.262504440000050
     611  1      -1.496696579710     18.037504440000049      6.937504440000052     18.037504440000049
     612  1      -1.496696579710     18.037504440000049      6.937504440000052     20.812504440000055
     613  1      -1.496696579710     18.037504440000049      9.712504440000052     18.037504440000049
     614  1      -1.496696579710     20.812504440000055      6.937504440000052     18.037504440000049
     615  1      -1.496696579710     20.812504440000055      9.712504440000052     18.037504440000049
     616  1      -1.496696579710     20.812504440000055      6.937504440000052     20.812504440000055
     617  1      -1.496696579710     18.037504440000049      9.712504440000052     20.812504440000055
     618  1      -1.496696579710     20.812504440000055      9.712504440000052     20.812504440000055
     619  1      -1.496696579710     18.037504440000049     12.487504440000052      1.387504440000052
     620  1      -1.496696579710     18.037504440000049     12.487504440000052      4.162504440000052
     621  1      -1.496696579710     20.812504440000055     12.487504440000052      1.387504440000052
     622  1      -1.496696579710     20.812504440000055     15.262504440000050      1.387504440000052
     623  1      -1.496696579710     20.812504440000055     12.487504440000052      4.162504440000052
     624  1      -1.496696579710     20.812504440000055     15.262504440000050      4.162504440000052
     625  1      -1.496696579710     18.037504440000049     12.487504440000052      6.937504440000052
     626  1      -1.496696579710     18.037504440000049     12.487504440000052      9.712504440000052
     627  1      -1.496696579710     18.037504440000049     15.262504440000050      6.937504440000052
     628  1      -1.496696579710     20.812504440000055     12.487504440000052      6.937504440000052
     629  1      -1.496696579710     20.812504440000055     15.262504440000050      6.937504440000052
     630  1      -1.496696579710     20.812504440000055     12.487504440000052      9.712504440000052
     631  1      -1.496696579710     18.037504440000049     15.262504440000050      9.712504440000052
     632  1      -1.496696579710     20.812504440000055     15.262504440000050      9.712504440000052
     633  1      -1.496696579710     18.037504440000049     15.262504440000050     12.487504440000052
     634  1      -1.496696579710     20.812504440000055     12.487504440000052     12.487504440000052
     635  1      -1.496696579710     20.812504440000055     15.262504440000050     12.487504440000052
     636  1      -1.496696579710     20.812504440000055     12.487504440000052     15.262504440000050
     637  1      -1.496696579710     18.037504440000049     15.262504440000050     15.262504440000050
     638  1      -1.496696579710     20.812504440000055     15.262504440000050     15.262504440000050
     639  1      -1.496696579710     18.037504440000049     12.487504440000052     18.037504440000049
     640  1      -1.496696579710     18.037504440000049     12.487504440000052     20.812504440000055
     641  1      -1.496696579710     18.037504440000049     15.262504440000050     18.037504440000049
     642  1      -1.496696579710     20.812504440000055     12.487504440000052     18.037504440000049
     643  1      -1.496696579710     20.812504440000055     15.262504440000050     18.037504440000049
     644  1      -1.496696579710     20.812504440000055     12.487504440000052     20.812504440000055
     645  1      -1.496696579710     18.037504440000049     15.262504440000050     20.812504440000055
     646  1      -1.496696579710     20.812504440000055     15.262504440000050     20.812504440000055
     647  1      -1.496696579710     18.037504440000049     20.812504440000055      1.387504440000052
     648  1      -1.496696579710     20.812504440000055     18.037504440000049      1.387504440000052
     649  1      -1.496696579710     20.812504440000055     20.812504440000055      1.387504440000052
     650  1      -1.496696579710     20.812504440000055     18.037504440000049      4.162504440000052
     651  1      -1.496696579710     18.037504440000049     20.812504440000055      4.162504440000052
     652  1      -1.496696579710     20.812504440000055     20.812504440000055      4.162504440000052
     653  1      -1.496696579710     18.037504440000049     18.037504440000049      6.937504440000052
     654  1      -1.496696579710     18.037504440000049     18.037504440000049      9.712504440000052
     655  1      -1.496696579710     18.037504440000049     20.812504440000055      6.937504440000052
     656  1      -1.496696579710     20.812504440000055     18.037504440000049      6.937504440000052
     657  1      -1.496696579710     20.812504440000055     20.812504440000055      6.937504440000052
     658  1      -1.496696579710     20.812504440000055     18.037504440000049      9.712504440000052
     659  1      -1.496696579710     18.037504440000049     20.812504440000055      9.712504440000052
     660  1      -1.496696579710     20.812504440000055     20.812504440000055      9.712504440000052
     661  1      -1.496696579710     18.037504440000049     18.037504440000049     12.487504440000052
     662  1      -1.496696579710     18.037504440000049     18.037504440000049     15.262504440000050
     663  1      -1.496696579710     18.037504440000049     20.812504440000055     12.487504440000052
     664  1      -1.496696579710     20.812504440000055     18.037504440000049     12.487504440000052
     665  1      -1.496696579710     20.812504440000055     20.812504440000055     12.487504440000052
     666  1      -1.496696579710     18.037504440000049     20.812504440000055     15.262504440000050
     667  1      -1.496696579710     18.037504440000049     18.037504440000049     18.037504440000049
     668  1      -1.496696579710     18.037504440000049     18.037504440000049     20.812504440000055
     669  1      -1.496696579710     18.037504440000049     20.812504440000055     18.037504440000049
     670  1      -1.496696579710     20.812504440000055     18.037504440000049     20.812504440000055
     671  1      -1.496696579710     18.037504440000049     20.812504440000055     20.812504440000055
     672  1      -1.496696579710     20.812504440000055     20.812504440000055     20.812504440000055
     673  1      -1.496696579710     18.981004440000049      2.775004440000052      8.325004440000052
     674  1      -1.496696579710     21.312004440000049      3.496504440000052      6.438004440000051
     675  1      -1.496696579710     21.312004440000049      4.662004440000053      9.046504440000051
     676  1      -1.496696579710     21.312004440000049      0.888004440000052      7.603504440000054
     677  1      -1.496696579710     21.312004440000049      2.053504440000052     10.212004440000054
     678  1      -1.496696579710     18.981004440000049      0.721504440000052      6.271504440000051
     679  1      -1.496696579710     18.981004440000049      4.828504440000052      6.271504440000051
     680  1      -1.496696579710     18.981004440000049      0.721504440000052     10.378504440000052
     681  1      -1.496696579710     18.981004440000049      4.828504440000052     10.378504440000052
     682  1      -1.496696579710     17.205004440000053      2.775004440000052      6.105004440000053
     683  1      -1.496696579710     17.205004440000053      2.775004440000052     10.545004440000053
     684  1      -1.496696579710     17.205004440000053      0.555004440000052      8.325004440000052
     685  1      -1.496696579710     17.205004440000053      4.995004440000051      8.325004440000052
     686  1      -1.496696579710     14.319004440000054      2.775004440000052     19.425004440000052
     687  1      -1.496696579710     11.988004440000052      3.496504440000052     21.312004440000049
     688  1      -1.496696579710     11.988004440000052      0.888004440000052     20.146504440000054
     689  1      -1.496696579710     11.988004440000052      4.662004440000053     18.703504440000053
     690  1      -1.496696579710     11.988004440000052      2.053504440000052     17.538004440000055
     691  1      -1.496696579710     14.319004440000054      4.828504440000052     21.478504440000055
     692  1      -1.496696579710     14.319004440000054      0.721504440000052     21.478504440000055
     693  1      -1.496696579710     14.319004440000054      4.828504440000052     17.371504440000052
     694  1      -1.496696579710     14.319004440000054      0.721504440000052     17.371504440000052
     695  1      -1.496696579710     16.095004440000050      2.775004440000052     21.645004440000051
     696  1      -1.496696579710     16.095004440000050      2.775004440000052     17.205004440000053
     697  1      -1.496696579710     16.095004440000050      4.995004440000051     19.425004440000052
     698  1      -1.496696579710     16.095004440000050      0.555004440000052     19.425004440000052
     699  1      -1.496696579710      7.881004440000051     13.875004440000053     19.425004440000052
     700  1      -1.496696579710     10.212004440000054     14.596504440000050     17.538004440000055
     701  1      -1.496696579710     10.212004440000054     15.762004440000052     20.146504440000054
     702  1      -1.496696579710     10.212004440000054     11.988004440000052     18.703504440000053
     703  1      -1.496696579710     10.212004440000054     13.153504440000052     21.312004440000049
     704  1      -1.496696579710      7.881004440000051     11.821504440000052     17.371504440000052
     705  1      -1.496696579710      7.881004440000051     15.928504440000053     17.371504440000052
     706  1      -1.496696579710      7.881004440000051     11.821504440000052     21.478504440000055
     707  1      -1.496696579710      7.881004440000051     15.928504440000053     21.478504440000055
     708  1      -1.496696579710      6.105004440000053     13.875004440000053     17.205004440000053
     709  1      -1.496696579710      6.105004440000053     13.875004440000053     21.645004440000051
     710  1      -1.496696579710      6.105004440000053     11.655004440000052     19.425004440000052
     711  1      -1.496696579710      6.105004440000053     16.095004440000050     19.425004440000052
     712  1      -1.496696579710      3.219004440000051     13.875004440000053      8.325004440000052
     713  1      -1.496696579710      0.888004440000052     14.596504440000050     10.212004440000054
     714  1      -1.496696579710      0.888004440000052     11.988004440000052      9.046504440000051
     715  1      -1.496696579710      0.888004440000052     15.762004440000052      7.603504440000054
     716  1      -1.496696579710      0.888004440000052     13.153504440000052      6.438004440000051
     717  1      -1.496696579710      3.219004440000051     15.928504440000053     10.378504440000052
     718  1      -1.496696579710      3.219004440000051     11.821504440000052     10.378504440000052
     719  1      -1.496696579710      3.219004440000051     15.928504440000053      6.271504440000051
     720  1      -1.496696579710      3.219004440000051     11.821504440000052      6.271504440000051
     721  1      -1.496696579710      4.995004440000051     13.875004440000053     10.545004440000053
     722  1      -1.496696579710      4.995004440000051     13.875004440000053      6.105004440000053
     723  1      -1.496696579710      4.995004440000051     16.095004440000050      8.325004440000052
     724  1      -1.496696579710      4.995004440000051     11.655004440000052      8.325004440000052
     725  1      -1.496696579710     16.650004440000053     17.094004440000056      2.775004440000052
     726  1      -1.496696579710     18.537004440000050     14.763004440000051      3.496504440000052
     727  1      -1.496696579710     17.371504440000052     14.763004440000051      0.888004440000052
     728  1      -1.496696579710     15.928504440000053     14.763004440000051      4.662004440000053
     729  1      -1.496696579710     14.763004440000051     14.763004440000051      2.053504440000052
     730  1      -1.496696579710     18.703504440000053     17.094004440000056      4.828504440000052
     731  1      -1.496696579710     18.703504440000053     17.094004440000056      0.721504440000052
     732  1      -1.496696579710     14.596504440000050     17.094004440000056      4.828504440000052
     733  1      -1.496696579710     14.596504440000050     17.094004440000056      0.721504440000052
     734  1      -1.496696579710     18.870004440000056     18.870004440000056      2.775004440000052
     735  1      -1.496696579710     14.430004440000053     18.870004440000056      2.775004440000052
     736  1      -1.496696579710     16.650004440000053     18.870004440000056      4.995004440000051
     737  1      -1.496696579710     16.650004440000053     18.870004440000056      0.555004440000052
     738  1      -1.496696579710     16.650004440000053     10.656004440000054     13.875004440000053
     739  1      -1.496696579710     14.763004440000051     12.987004440000055     14.596504440000050
     740  1      -1.496696579710     17.371504440000052     12.987004440000055     15.762004440000052
     741  1      -1.496696579710     15.928504440000053     12.987004440000055     11.988004440000052
     742  1      -1.496696579710     18.537004440000050     12.987004440000055     13.153504440000052
     743  1      -1.496696579710     14.596504440000050     10.656004440000054     11.821504440000052
     744  1      -1.496696579710     14.596504440000050     10.656004440000054     15.928504440000053
     745  1      -1.496696579710     18.703504440000053     10.656004440000054     11.821504440000052
     746  1      -1.496696579710     18.703504440000053     10.656004440000054     15.928504440000053
     747  1      -1.496696579710     14.430004440000053      8.880004440000052     13.875004440000053
     748  1      -1.496696579710     18.870004440000056      8.880004440000052     13.875004440000053
     749  1      -1.496696579710     16.650004440000053      8.880004440000052     11.655004440000052
     750  1      -1.496696579710     16.650004440000053      8.880004440000052     16.095004440000050
     751  1      -1.496696579710      5.550004440000052      5.994004440000053     13.875004440000053
     752  1      -1.496696579710      7.437004440000052      3.663004440000052     14.596504440000050
     753  1      -1.496696579710      6.271504440000051      3.663004440000052     11.988004440000052
     754  1      -1.496696579710      4.828504440000052      3.663004440000052     15.762004440000052
     755  1      -1.496696579710      3.663004440000052      3.663004440000052     13.153504440000052
     756  1      -1.496696579710      7.603504440000054      5.994004440000053     15.928504440000053
     757  1      -1.496696579710      7.603504440000054      5.994004440000053     11.821504440000052
     758  1      -1.496696579710      3.496504440000052      5.994004440000053     15.928504440000053
     759  1      -1.496696579710      3.496504440000052      5.994004440000053     11.821504440000052
     760  1      -1.496696579710      7.770004440000051      7.770004440000051     13.875004440000053
     761  1      -1.496696579710      3.330004440000052      7.770004440000051     13.875004440000053
     762  1      -1.496696579710      5.550004440000052      7.770004440000051     16.095004440000050
     763  1      -1.496696579710      5.550004440000052      7.770004440000051     11.655004440000052
     764  1      -1.496696579710      5.550004440000052     21.756004440000051      2.775004440000052
     765  1      -1.496696579710      3.663004440000052      1.887004440000052      3.496504440000052
     766  1      -1.496696579710      6.271504440000051      1.887004440000052      4.662004440000053
     767  1      -1.496696579710      4.828504440000052      1.887004440000052      0.888004440000052
     768  1      -1.496696579710      7.437004440000052      1.887004440000052      2.053504440000052
     769  1      -1.496696579710      3.496504440000052     21.756004440000051      0.721504440000052
     770  1      -1.496696579710      3.496504440000052     21.756004440000051      4.828504440000052
     771  1      -1.496696579710      7.603504440000054     21.756004440000051      0.721504440000052
     772  1      -1.496696579710      7.603504440000054     21.756004440000051      4.828504440000052
     773  1      -1.496696579710      3.330004440000052     19.980004440000055      2.775004440000052
     774  1      -1.496696579710      7.770004440000051     19.980004440000055      2.775004440000052
     775  1      -1.496696579710      5.550004440000052     19.980004440000055      0.555004440000052
     776  1      -1.496696579710      5.550004440000052     19.980004440000055      4.995004440000051
     777  1      -1.496696579710      0.444004440000052     19.425004440000052     16.650004440000053
     778  1      -1.496696579710     20.313004440000054     20.146504440000054     18.537004440000050
     779  1      -1.496696579710     20.313004440000054     17.538004440000055     17.371504440000052
     780  1      -1.496696579710     20.313004440000054     21.312004440000049     15.928504440000053
     781  1      -1.496696579710     20.313004440000054     18.703504440000053     14.763004440000051
     782  1      -1.496696579710      0.444004440000052     21.478504440000055     18.703504440000053
     783  1      -1.496696579710      0.444004440000052     17.371504440000052     18.703504440000053
     784  1      -1.496696579710      0.444004440000052     21.478504440000055     14.596504440000050
     785  1      -1.496696579710      0.444004440000052     17.371504440000052     14.596504440000050
     786  1      -1.496696579710      2.220004440000052     19.425004440000052     18.870004440000056
     787  1      -1.496696579710      2.220004440000052     19.425004440000052     14.430004440000053
     788  1      -1.496696579710      2.220004440000052     21.645004440000051     16.650004440000053
     789  1      -1.496696579710      2.220004440000052     17.205004440000053     16.650004440000053
     790  1      -1.496696579710     11.544004440000053     19.425004440000052     11.100004440000053
     791  1      -1.496696579710      9.213004440000052     20.146504440000054     12.987004440000055
     792  1      -1.496696579710      9.213004440000052     17.538004440000055     11.821504440000052
     793  1      -1.496696579710      9.213004440000052     21.312004440000049     10.378504440000052
     794  1      -1.496696579710      9.213004440000052     18.703504440000053      9.213004440000052
     795  1      -1.496696579710     11.544004440000053     21.478504440000055     13.153504440000052
     796  1      -1.496696579710     11.544004440000053     17.371504440000052     13.153504440000052
     797  1      -1.496696579710     11.544004440000053     21.478504440000055      9.046504440000051
     798  1      -1.496696579710     11.544004440000053     17.371504440000052      9.046504440000051
     799  1      -1.496696579710     13.320004440000051     19.425004440000052     13.320004440000051
     800  1      -1.496696579710     13.320004440000051     19.425004440000052      8.880004440000052
     801  1      -1.496696579710     13.320004440000051     21.645004440000051     11.100004440000053
     802  1      -1.496696579710     13.320004440000051     17.205004440000053     11.100004440000053
     803  1      -1.496696579710     10.656004440000054      8.325004440000052      0.000004440000052
     804  1      -1.496696579710     12.987004440000055      9.046504440000051     20.313004440000054
     805  1      -1.496696579710     12.987004440000055     10.212004440000054      0.721504440000052
     806  1      -1.496696579710     12.987004440000055      6.438004440000051     21.478504440000055
     807  1      -1.496696579710     12.987004440000055      7.603504440000054      1.887004440000052
     808  1      -1.496696579710     10.656004440000054      6.271504440000051     20.146504440000054
     809  1      -1.496696579710     10.656004440000054     10.378504440000052     20.146504440000054
     810  1      -1.496696579710     10.656004440000054      6.271504440000051      2.053504440000052
     811  1      -1.496696579710     10.656004440000054     10.378504440000052      2.053504440000052
     812  1      -1.496696579710      8.880004440000052      8.325004440000052     19.980004440000055
     813  1      -1.496696579710      8.880004440000052      8.325004440000052      2.220004440000052
     814  1      -1.496696579710      8.880004440000052      6.105004440000053      0.000004440000052
     815  1      -1.496696579710      8.880004440000052     10.545004440000053      0.000004440000052
     816  1      -1.496696579710     21.756004440000051      8.325004440000052      5.550004440000052
     817  1      -1.496696579710      1.887004440000052      9.046504440000051      3.663004440000052
     818  1      -1.496696579710      1.887004440000052     10.212004440000054      6.271504440000051
     819  1      -1.496696579710      1.887004440000052      6.438004440000051      4.828504440000052
     820  1      -1.496696579710      1.887004440000052      7.603504440000054      7.437004440000052
     821  1      -1.496696579710     21.756004440000051      6.271504440000051      3.496504440000052
     822  1      -1.496696579710     21.756004440000051     10.378504440000052      3.496504440000052
     823  1      -1.496696579710     21.756004440000051      6.271504440000051      7.603504440000054
     824  1      -1.496696579710     21.756004440000051     10.378504440000052      7.603504440000054
     825  1      -1.496696579710     19.980004440000055      8.325004440000052      3.330004440000052
     826  1      -1.496696579710     19.980004440000055      8.325004440000052      7.770004440000051
     827  1      -1.496696579710     19.980004440000055      6.105004440000053      5.550004440000052
     828  1      -1.496696579710     19.980004440000055     10.545004440000053      5.550004440000052
