This is a COMMET LINE. Feel Free and Luc
   12.0000000000000     
     1.0000000000000000    0.0000000000000000    0.0000000000000000
     0.0000000000000000    1.0000000000000000    0.0000000000000000
     0.0000000000000000    0.0000000000000000    1.0000000000000000
   V    He   S
   12     1   2
Direct
  0.0092826823698066  0.0065588716520022  0.0065588716520022
  0.0092826823698066  0.0065588716520022  0.2434411283479977
  0.0092826823698066  0.2434411283479977  0.0065588716520022
  0.0092826823698066  0.2434411283479977  0.2434411283479977
  0.2500000000000000 -0.0046055600236634 -0.0046055600236634
  0.2500000000000000 -0.0046055600236634  0.2546055600236634
  0.2500000000000000  0.2546055600236634 -0.0046055600236634
  0.2500000000000000  0.2546055600236634  0.2546055600236634
  0.4907173176301863  0.0065588716520022  0.0065588716520022
  0.4907173176301863  0.0065588716520022  0.2434411283479977
  0.4907173176301863  0.2434411283479977  0.0065588716520022
  0.4907173176301863  0.2434411283479977  0.2434411283479977
  0.2500000000000000  0.1250000000000000  0.1250000000000000
  0.1250000000000000  0.1250000000000000  0.1250000000000000
  0.3750000000000000  0.1250000000000000  0.1250000000000000
