This is a COMMEnT LINE. Feel Free and Lu
   12.0000000000000     
     1.0000000000000000    0.0000000000000000    0.0000000000000000
     0.0000000000000000    1.0000000000000000    0.0000000000000000
     0.0000000000000000    0.0000000000000000    1.0000000000000000
   V    He   S
   8     1   1
Direct
  0.0058576410789309  0.0051471875905886  0.0051471875905886
  0.0058576410789309  0.0051471875905886  0.2448528124094114
  0.0058576410789309  0.2448528124094114  0.0051471875905886
  0.0058576410789309  0.2448528124094114  0.2448528124094114
  0.2490624339771539 -0.0089123660917786 -0.0089123660917786
  0.2490624339771539 -0.0089123660917786  0.2589123660917785
  0.2490624339771539  0.2589123660917785 -0.0089123660917786
  0.2490624339771539  0.2589123660917785  0.2589123660917785
  0.2212036378478723  0.1250000000000000  0.1250000000000000
  0.1250000000000000  0.1250000000000000  0.1250000000000000
