This is a COMMET LINE. Feel Free and Luc
   12.0000000000000     
     1.0000000000000000    0.0000000000000000    0.0000000000000000
     0.0000000000000000    1.0000000000000000    0.0000000000000000
     0.0000000000000000    0.0000000000000000    1.0000000000000000
   V    He   S
   14     1   2
Direct
  0.0094362235420808  0.0094362235420808  0.0094362235420808
 -0.0001656881366588 -0.0001656881366588  0.2494921675613116
  0.1241584982740810  0.1241584982740810  0.3838711874670178
 -0.0001656881366588  0.2494921675613116 -0.0001656881366588
  0.1241584982740810  0.3838711874670178  0.1241584982740810
 -0.0102212447019206  0.2501408553643180  0.2501408553643180
  0.1245879906723360  0.3742324032478428  0.3742324032478428
  0.2494921675613116 -0.0001656881366588 -0.0001656881366588
  0.3838711874670178  0.1241584982740810  0.1241584982740810
  0.2501408553643180 -0.0102212447019206  0.2501408553643180
  0.3742324032478428  0.1245879906723360  0.3742324032478428
  0.2501408553643180  0.2501408553643180 -0.0102212447019206
  0.3742324032478428  0.3742324032478428  0.1245879906723360
  0.3643513229317982  0.3643513229317982  0.3643513229317982
  0.1871108299038675  0.1871108299038675  0.1871108299038675
  0.1250000000000000  0.1250000000000000  0.1250000000000000
  0.2500000000000000  0.2500000000000000  0.2500000000000000
