This is a COMMEnT LINE. Feel Free and Lu
   12.0000000000000     
     1.0000000000000000    0.0000000000000000    0.0000000000000000
     0.0000000000000000    1.0000000000000000    0.0000000000000000
     0.0000000000000000    0.0000000000000000    1.0000000000000000
   V    He
   8     1
Direct
 -0.0034454119562629 -0.0034454119562629 -0.0034454119562629
 -0.0034454119562629 -0.0034454119562629  0.2534454119562625
 -0.0034454119562629  0.2534454119562625 -0.0034454119562629
 -0.0034454119562629  0.2534454119562625  0.2534454119562625
  0.2534454119562625 -0.0034454119562629 -0.0034454119562629
  0.2534454119562625 -0.0034454119562629  0.2534454119562625
  0.2534454119562625  0.2534454119562625 -0.0034454119562629
  0.2534454119562625  0.2534454119562625  0.2534454119562625
  0.1250000000000000  0.1250000000000000  0.1250000000000000
