This is a COMMET LINE. Feel Free and Luc
   12.0000000000000     
     1.0000000000000000    0.0000000000000000    0.0000000000000000
     0.0000000000000000    1.0000000000000000    0.0000000000000000
     0.0000000000000000    0.0000000000000000    1.0000000000000000
   V    He   S
   14     1   2
Direct
  0.0091401487591295  0.0104257828342925  0.0098349125601262
 -0.0011579297373668 -0.0033489217744897  0.2480594258888699
  0.1291432024639940  0.1240868290905189  0.3803998747588835
  0.0024951851311125  0.2489258272077315  0.0007515994700796
  0.1260173501432196  0.3866013514520402  0.1225723538081616
 -0.0053998747588836  0.2509131709094811  0.2458567975360060
  0.1269405741111301  0.3783489217744898  0.3761579297373669
  0.2467861588987897  0.0049996281338015  0.0061324260233559
  0.3807816769917406  0.1272769191260980  0.1287336498680903
  0.2524276461918384 -0.0116013514520403  0.2489826498567804
  0.3742484005299204  0.1260741727922685  0.3725048148688875
  0.2462663501319097  0.2477230808739020 -0.0057816769917406
  0.3688675739766440  0.3700003718661986  0.1282138411012103
  0.3651650874398738  0.3645742171657074  0.3658598512408706
  0.1521833440325930  0.1875000000000000  0.2228166559674070
  0.1250000000000000  0.1250000000000000  0.1250000000000000
  0.2500000000000000  0.2500000000000000  0.2500000000000000
