This is a COMMET LINE. Feel Free and Luc
   12.0000000000000     
     1.0000000000000000    0.0000000000000000    0.0000000000000000
     0.0000000000000000    1.0000000000000000    0.0000000000000000
     0.0000000000000000    0.0000000000000000    1.0000000000000000
   V    He   S
   14     2   2
Direct
  0.0036728626246680  0.0036728626246680  0.2493425733341197
  0.0024720969181873  0.2518253637538787  0.0010327527546893
  0.0164062063008408  0.2587503105594407  0.2508636163254687
  0.2518253637538787  0.0024720969181873  0.0010327527546893
  0.2587503105594407  0.0164062063008408  0.2508636163254687
  0.2482093078220380  0.2482093078220380  0.0079830501135199
  0.0095823591895399  0.0095823591895399  0.0084192249393311
  0.1267906921779620  0.1267906921779620  0.3829830501135200
  0.1162496894405592  0.3914062063008408  0.1241363836745313
  0.1231746362461214  0.3774720969181873  0.3739672472453107
  0.3914062063008408  0.1162496894405592  0.1241363836745313
  0.3774720969181873  0.1231746362461214  0.3739672472453107
  0.3786728626246679  0.3786728626246679  0.1256574266658803
  0.3654176408104601  0.3654176408104601  0.3665807750606689
  0.1486275141788726  0.1486275141788726  0.2302095861812263
  0.2263724858211274  0.2263724858211274  0.1447904138187737
  0.1250000000000000  0.1250000000000000  0.1250000000000000
  0.2500000000000000  0.2500000000000000  0.2500000000000000
