 #a0=   3.00000000000000      n1=       
   15.0000000000000     
     1.0000000000000000    0.0000000000000000    0.0000000000000000
     0.0000000000000000    1.0000000000000000    0.0000000000000000
     0.0000000000000000    0.0000000000000000    1.0000000000000000
   V    He   S
   8     2   1
Direct
 -0.0001027199257522 -0.0001027199257521 -0.0001027199257522
 -0.0055934557394313 -0.0055934557394313  0.2093985232148232
 -0.0055934557394313  0.2093985232148232 -0.0055934557394313
 -0.0093985232148213  0.2055934557394338  0.2055934557394342
  0.2093985232148232 -0.0055934557394313 -0.0055934557394314
  0.2055934557394334 -0.0093985232148213  0.2055934557394337
  0.2055934557394337  0.2055934557394344 -0.0093985232148214
  0.2001027199257541  0.2001027199257541  0.2001027199257554
  0.0686524441948506  0.0686524441948511  0.0686524441948506
  0.1313475558051454  0.1313475558051454  0.1313475558051447
  0.1000000000000000  0.1000000000000000  0.1000000000000000
