 #a0=   3.00000000000000      n1=       
   15.0000000000000     
     1.0000000000000000    0.0000000000000000    0.0000000000000000
     0.0000000000000000    1.0000000000000000    0.0000000000000000
     0.0000000000000000    0.0000000000000000    1.0000000000000000
   V    He   S
   8     3   1
Direct
 -0.0071191457758952 -0.0151176090539065 -0.0071191457758952
 -0.0039115164063827 -0.0116472142513186  0.2095194999050390
 -0.0071191457758952  0.2151176090539093 -0.0071191457758952
 -0.0039115164063827  0.2116472142513214  0.2095194999050390
  0.2095194999050390 -0.0116472142513186 -0.0039115164063827
  0.2001648170471671 -0.0049558746733657  0.2001648170471671
  0.2095194999050390  0.2116472142513214 -0.0039115164063827
  0.2001648170471671  0.2049558746733686  0.2001648170471671
  0.0214639763383533  0.1000000000000014  0.1073118043764811
  0.1387980769528009  0.1000000000000014  0.1387980769528009
  0.1073118043764811  0.1000000000000014  0.0214639763383533
  0.0900000000000014  0.1000000000000014  0.0900000000000014
