 #a0=   3.00000000000000      n1=       
   15.0000000000000     
     1.0000000000000000    0.0000000000000000    0.0000000000000000
     0.0000000000000000    1.0000000000000000    0.0000000000000000
     0.0000000000000000    0.0000000000000000    1.0000000000000000
   V    He   S
   8     4   1
Direct
 -0.0075161180993280 -0.0165509621831049 -0.0075161180993280
 -0.0075161180993280 -0.0165509621831048  0.2075161180993309
 -0.0075161180993280  0.2165509621831077 -0.0075161180993280
 -0.0075161180993280  0.2165509621831080  0.2075161180993310
  0.2075161180993309 -0.0165509621831049 -0.0075161180993280
  0.2075161180993309 -0.0165509621831049  0.2075161180993310
  0.2075161180993309  0.2165509621831077 -0.0075161180993280
  0.2075161180993309  0.2165509621831078  0.2075161180993309
  0.1000000000000014  0.1000000000000014  0.1822634424733318
  0.0177365575266711  0.1000000000000014  0.1000000000000014
  0.1000000000000014  0.1000000000000014  0.0177365575266711
  0.1822634424733318  0.1000000000000014  0.1000000000000014
  0.1000000000000014  0.1000000000000014  0.1000000000000014
