This is a COMMET LINE. Feel Free and Luc
   12.000
     1.0000000000000000  0.0000000000000000  0.0000000000000000
     0.0000000000000000  1.0000000000000000  0.0000000000000000
     0.0000000000000000  0.0000000000000000  1.0000000000000000
   V   He   S
   12   4   2
Direct
  0.0112002280477803  0.0077725433060761  0.0077725433060761
  0.0112002280477803  0.0077725433060761  0.2422274566939239
  0.0112002280477803  0.2422274566939239  0.0077725433060761
  0.0112002280477803  0.2422274566939239  0.2422274566939239
  0.2500000000000000  0.0119492781676196  0.0119492781676196
  0.2500000000000000  0.0119492781676196  0.2380507218323803
  0.2500000000000000  0.2380507218323803  0.0119492781676196
  0.2500000000000000  0.2380507218323803  0.2380507218323803
  0.4887997719522197  0.0077725433060761  0.0077725433060761
  0.4887997719522197  0.0077725433060761  0.2422274566939239
  0.4887997719522197  0.2422274566939239  0.0077725433060761
  0.4887997719522197  0.2422274566939239  0.2422274566939239
  0.0625000000000000  0.0625000000000000  0.0625000000000000
  0.1875000000000000  0.1875000000000000  0.1875000000000000
  0.3125000000000000  0.0625000000000000  0.0625000000000000
  0.4375000000000000  0.1875000000000000  0.1875000000000000
  0.1250000000000000  0.1250000000000000  0.1250000000000000
  0.3750000000000000  0.1250000000000000  0.1250000000000000
