 #a0=   3.00000000000000      n1=       
   15.0000000000000     
     1.0000000000000000    0.0000000000000000    0.0000000000000000
     0.0000000000000000    1.0000000000000000    0.0000000000000000
     0.0000000000000000    0.0000000000000000    1.0000000000000000
   V    He   S
   8     5   1
Direct
 -0.0080492188689858 -0.0164190473618445 -0.0080492188689858
 -0.0080492188689858 -0.0164190473618446  0.2080492188689883
 -0.0155365768422116  0.2163953477694038 -0.0155365768422116
 -0.0155365768422116  0.2163953477694038  0.2155365768422147
  0.2080492188689883 -0.0164190473618445 -0.0080492188689858
  0.2080492188689883 -0.0164190473618446  0.2080492188689883
  0.2155365768422147  0.2163953477694038 -0.0155365768422116
  0.2155365768422147  0.2163953477694038  0.2155365768422147
  0.1000000000000014  0.0958961013234589  0.1850248929652107
  0.0149751070347923  0.0958961013234589  0.1000000000000014
  0.1000000000000014  0.0958961013234589  0.0149751070347923
  0.1850248929652107  0.0958961013234589  0.1000000000000014
  0.1000000000000014  0.1862257658091123  0.1000000000000014
  0.1000000000000014  0.1000000000000014  0.1000000000000014
