 #a0=   3.00000000000000      n1=       
   15.0000000000000     
     1.0000000000000000    0.0000000000000000    0.0000000000000000
     0.0000000000000000    1.0000000000000000    0.0000000000000000
     0.0000000000000000    0.0000000000000000    1.0000000000000000
   V    He   S
   8     6   1
Direct
 -0.0162895428194731 -0.0162895428194730 -0.0162895428194730
 -0.0162895428194730 -0.0162895428194730  0.2162895428194758
 -0.0162895428194731  0.2162895428194758 -0.0162895428194730
 -0.0162895428194730  0.2162895428194757  0.2162895428194758
  0.2162895428194758 -0.0162895428194730 -0.0162895428194730
  0.2162895428194758 -0.0162895428194730  0.2162895428194758
  0.2162895428194758  0.2162895428194757 -0.0162895428194730
  0.2162895428194758  0.2162895428194758  0.2162895428194758
  0.1000000000000014  0.1000000000000014  0.1870217241136887
  0.0129782758863142  0.1000000000000014  0.1000000000000014
  0.1000000000000014  0.1000000000000014  0.0129782758863142
  0.1870217241136885  0.1000000000000014  0.1000000000000014
  0.1000000000000014  0.0129782758863142  0.1000000000000014
  0.1000000000000014  0.1870217241136885  0.1000000000000014
  0.1000000000000000  0.1000000000000000  0.1000000000000000
