This is a COMMET LINE. Feel Free and Luc
   12.0000000000000     
     1.0000000000000000    0.0000000000000000    0.0000000000000000
     0.0000000000000000    1.0000000000000000    0.0000000000000000
     0.0000000000000000    0.0000000000000000    1.0000000000000000
   V    He
   9     1
Direct
 -0.0027661614699663 -0.0009025593679710 -0.0009025593679710
 -0.0027661614699663 -0.0009025593679710  0.2509025593679712
  0.1021860882403805  0.1250000000000000  0.1250000000000000
 -0.0027661614699663  0.2509025593679712 -0.0009025593679710
 -0.0027661614699663  0.2509025593679712  0.2509025593679712
  0.2500000000000000 -0.0096413886184779 -0.0096413886184779
  0.2500000000000000 -0.0096413886184779  0.2596413886184777
  0.2500000000000000  0.2596413886184778 -0.0096413886184779
  0.2500000000000000  0.2596413886184778  0.2596413886184777
  0.2500000000000000  0.1250000000000000  0.1250000000000000
