This is a COMMET LINE. Feel Free and Luc
   12.0000000000000     
     1.0000000000000000    0.0000000000000000    0.0000000000000000
     0.0000000000000000    1.0000000000000000    0.0000000000000000
     0.0000000000000000    0.0000000000000000    1.0000000000000000
   V    He
   9     1
Direct
 -0.0019079656532243 -0.0003428649856472 -0.0015135460940944
 -0.0013654298236256 -0.0000420575925051  0.2503550316315450
  0.1108972840079196  0.1250000000000000  0.1152622195364222
 -0.0019079656532243  0.2503428649856471 -0.0015135460940944
 -0.0013654298236256  0.2500420575925054  0.2503550316315450
  0.2500000000000000 -0.0040848843587050 -0.0061477156264927
  0.2500000000000000 -0.0141027159920803  0.2597377804635779
  0.2500000000000000  0.2540848843587050 -0.0061477156264927
  0.2500000000000000  0.2641027159920802  0.2597377804635779
  0.2500000000000000  0.1250000000000000  0.1875000000000000
