This is a COMMEnT LINE. Feel Free and Lu
   12.0000000000000     
     1.0000000000000000    0.0000000000000000    0.0000000000000000
     0.0000000000000000    1.0000000000000000    0.0000000000000000
     0.0000000000000000    0.0000000000000000    1.0000000000000000
   V   S
   8   1
Direct
  0.0077457176073545  0.0077457176073545  0.0077457176073545
  0.0077457176073545  0.0077457176073545  0.2422542823926455
  0.0077457176073545  0.2422542823926455  0.0077457176073545
  0.0077457176073545  0.2422542823926455  0.2422542823926455
  0.2422542823926455  0.0077457176073545  0.0077457176073545
  0.2422542823926455  0.0077457176073545  0.2422542823926455
  0.2422542823926455  0.2422542823926455  0.0077457176073545
  0.2422542823926455  0.2422542823926455  0.2422542823926455
  0.1250000000000000  0.1250000000000000  0.1250000000000000
