This is a COMMET LINE. Feel Free and Luc
   12.0000000000000     
     1.0000000000000000    0.0000000000000000    0.0000000000000000
     0.0000000000000000    1.0000000000000000    0.0000000000000000
     0.0000000000000000    0.0000000000000000    1.0000000000000000
   V   S
   14   2
Direct
  0.0036782724803349  0.0036782724803349  0.0036782724803349
  0.0066124288071280  0.0066124288071280  0.2380877060918778
  0.1353796238476317  0.1353796238476317  0.3727535669699082
  0.0066124288071280  0.2380877060918778  0.0066124288071280
  0.1353796238476317  0.3727535669699082  0.1353796238476317
  0.0022464330300918  0.2396203761523683  0.2396203761523683
  0.1369122939081222  0.3683875711928722  0.3683875711928722
  0.2380877060918778  0.0066124288071280  0.0066124288071280
  0.3727535669699082  0.1353796238476317  0.1353796238476317
  0.2396203761523683  0.0022464330300918  0.2396203761523683
  0.3683875711928722  0.1369122939081222  0.3683875711928722
  0.2396203761523683  0.2396203761523683  0.0022464330300918
  0.3683875711928722  0.3683875711928722  0.1369122939081222
  0.3713217275196652  0.3713217275196652  0.3713217275196652
  0.1250000000000000  0.1250000000000000  0.1250000000000000
  0.2500000000000000  0.2500000000000000  0.2500000000000000
