This is a COMMET LINE. Feel Free and Luc
   12.0000000000000     
     1.0000000000000000    0.0000000000000000    0.0000000000000000
     0.0000000000000000    1.0000000000000000    0.0000000000000000
     0.0000000000000000    0.0000000000000000    1.0000000000000000
   V   S
   12   2
Direct
  0.0084193240571175  0.0049297822934303  0.0049297822934303
  0.0118058239733755  0.0074236387673776  0.2397496798324611
  0.0118058239733755  0.2397496798324611  0.0074236387673776
  0.0132902989604558  0.2411266679050254  0.2411266679050254
  0.2468892786047698  0.0111125167609777  0.0111125167609777
  0.2524845715421197  0.2383532933379991  0.2383532933379991
  0.2496870260038900  0.0120965654860727  0.2373509467782412
  0.2496870260038900  0.2373509467782412  0.0120965654860727
  0.4859961087481434  0.0076996216400054  0.0076996216400054
  0.4874669545074124  0.0091851205004096  0.2417220726782194
  0.4874669545074124  0.2417220726782194  0.0091851205004096
  0.4908698657235405  0.2442183951958349  0.2442183951958349
  0.1250000000000000  0.1250000000000000  0.1250000000000000
  0.3750000000000000  0.1250000000000000  0.1250000000000000
