This is a COMMET LINE. Feel Free and Luc
   12.0000000000000     
     1.0000000000000000    0.0000000000000000    0.0000000000000000
     0.0000000000000000    1.0000000000000000    0.0000000000000000
     0.0000000000000000    0.0000000000000000    1.0000000000000000
   V   S
   17   3
Direct
  0.0121893361882365  0.0052400747902324  0.0052400747902324
  0.0114411315874578  0.0089991438497452  0.2398723066195740
  0.1331684559073489  0.1369910448788730  0.3745762458473026
  0.0114411315874578  0.2398723066195740  0.0089991438497452
  0.1331684559073489  0.3745762458473026  0.1369910448788730
  0.0013398618395224  0.2421029750886053  0.2421029750886053
  0.1329806013021176  0.3706344341520250  0.3706344341520250
  0.2500000000000000  0.0025634537683357  0.0025634537683357
  0.2500000000000000  0.0142043919136343  0.2326129392729094
  0.3668315440926510  0.1369910448788730  0.3745762458473026
  0.2500000000000000  0.2326129392729094  0.0142043919136343
  0.3668315440926510  0.3745762458473026  0.1369910448788730
  0.3670193986978824  0.3706344341520250  0.3706344341520250
  0.4878106638117636  0.0052400747902324  0.0052400747902324
  0.4885588684125424  0.0089991438497452  0.2398723066195740
  0.4885588684125424  0.2398723066195740  0.0089991438497452
  0.4986601381604778  0.2421029750886053  0.2421029750886053
  0.1250000000000000  0.1250000000000000  0.1250000000000000
  0.3750000000000000  0.1250000000000000  0.1250000000000000
  0.2500000000000000  0.2500000000000000  0.2500000000000000
