 #a0=   2.85530000000000      n1=       
   15.0000000000000     
     1.0000000000000000    0.0000000000000000    0.0000000000000000
     0.0000000000000000    1.0000000000000000    0.0000000000000000
     0.0000000000000000    0.0000000000000000    1.0000000000000000
   V   S
   25   4
Direct
  0.0004167135405639  0.0005240429370672  0.0015859653441204
  0.1056202971261939  0.1071268770996154  0.0993140935178947
  0.0083565855212537  0.0068952097381071  0.2061713043146685
  0.0083569169894031  0.0068949606390589  0.3938316096479454
  0.1056210055288285  0.1071267946302261  0.5006901819243563
  0.0022188589198342  0.2000841337460280  0.0032640350626673
  0.1061689406288357  0.2931073194859556  0.1083568923152378
  0.1067081650389049  0.2907643253416504  0.3000024257216390
  0.1061695603848172  0.2931071251814472  0.4916445358453400
  0.2000024082353244  0.0015468892042735  0.0031443182910902
  0.2943812897768280  0.1071281754031115  0.0993152834850585
  0.2000016906771950  0.0092359122049121  0.2067072699514415
  0.2000001215613569  0.0092346001177209  0.3932942831825972
  0.2943815950714059  0.1071275965903492  0.5006902207964306
  0.2938334037652069  0.2931068800504432  0.1083570734390507
  0.2932955208152077  0.2907649806698577  0.3000004552276959
  0.2938330740958838  0.2931070037803901  0.4916443724085563
  0.3995861863308482  0.0005227263214649  0.0015872072346637
  0.3916467894479340  0.0068938854294963  0.2061706899695248
  0.3916461677171730  0.0068933466389461  0.3938323715216490
  0.3977806006426213  0.2000836194213145  0.0032642438643052
  0.4006880596341792  0.1928766671461799  0.2056220278696528
  0.4006882288406223  0.1928767913447271  0.3943817113489015
  0.0006897915941781  0.1928772917512452  0.2056216310629178
  0.0006892835636334  0.1928766449217749  0.3943814156212709
  0.2000000000000000  0.2000000000000000  0.2000000000000000
  0.2000000000000000  0.2000000000000000  0.4000000000000000
  0.1000000000000000  0.1000000000000000  0.3000000000000000
  0.3000000000000000  0.1000000000000000  0.3000000000000000
