 #a0=   2.85530000000000      n1=       
   15.0000000000000     
     1.0000000000000000    0.0000000000000000    0.0000000000000000
     0.0000000000000000    1.0000000000000000    0.0000000000000000
     0.0000000000000000    0.0000000000000000    1.0000000000000000
   V   S
   21   5
Direct
  0.0088520929333895  0.0088520929333895  0.0072088983152466
  0.0086722163251286  0.0086722163251286  0.1943530974652476
  0.1061258393959316  0.1061258393959316  0.2994828953814216
  0.0113785120983606  0.1999993399665715  0.0051058638060041
  0.0081156509822878  0.1999980273282252  0.1900464625280975
  0.1061270860607826  0.2938702499257502  0.2994807542161043
  0.0088506396802273  0.3911496090926768  0.0072055257223643
  0.0086736812998271  0.3913274175065102  0.1943509456540867
  0.1999993399665715  0.0113785120983606  0.0051058638060041
  0.1999980273282252  0.0081156509822878  0.1900464625280975
  0.2938702499257502  0.1061270860607826  0.2994807542161043
  0.1999984145917230  0.1999984145917230  0.0037642517963908
  0.2938694583370115  0.2938694583370115  0.2994795621396157
  0.1999979616631098  0.3886236337146659  0.0051055312698057
  0.1999989209041891  0.3918925884552956  0.1900481984435649
  0.3911496090926768  0.0088506396802273  0.0072055257223643
  0.3913274175065102  0.0086736812998271  0.1943509456540867
  0.3886236337146659  0.1999979616631098  0.0051055312698057
  0.3918925884552956  0.1999989209041891  0.1900481984435649
  0.3911510765848151  0.3911510765848151  0.0072028234527374
  0.3913280687445752  0.3913280687445752  0.1943509748880961
  0.1000000000000000  0.1000000000000000  0.1000000000000000
  0.3000000000000000  0.1000000000000000  0.1000000000000000
  0.1000000000000000  0.3000000000000000  0.1000000000000000
  0.3000000000000000  0.3000000000000000  0.1000000000000000
  0.2000000000000000  0.2000000000000000  0.2000000000000000
