 
769 atoms
2 atom types
 
    0.0000000000000000    21.8719999999999999 xlo xhi
    0.0000000000000000    21.8719999999999999 ylo yhi
    0.0000000000000000    21.8719999999999999 zlo zhi
    0.0000000000000000     0.0000000000000000     0.0000000000000000 xy xz yz
 
Atoms
 
       1  2       3.229350343303      0.000005467999986      0.000005467999986      0.000005467999986
       2  2       3.229350343303      2.734005467999986      2.734005467999986      0.000005467999986
       3  2       3.229350343303      0.000005467999986      2.734005467999986      2.734005467999986
       4  2       3.229350343303      2.734005467999986      0.000005467999986      2.734005467999986
       5  1      -1.611527656697      1.367005467999986      1.367005467999986      1.367005467999986
       6  1      -1.611527656697      4.101005467999986      1.367005467999986      1.367005467999986
       7  1      -1.611527656697      4.101005467999986      4.101005467999986      1.367005467999986
       8  1      -1.611527656697      4.101005467999986      1.367005467999986      4.101005467999986
       9  1      -1.611527656697      4.101005467999986      4.101005467999986      4.101005467999986
      10  1      -1.611527656697      1.367005467999986      4.101005467999986      1.367005467999986
      11  1      -1.611527656697      1.367005467999986      1.367005467999986      4.101005467999986
      12  1      -1.611527656697      1.367005467999986      4.101005467999986      4.101005467999986
      13  2       3.229350343303      0.000005467999986      0.000005467999986      5.468005467999985
      14  2       3.229350343303      2.734005467999986      2.734005467999986      5.468005467999985
      15  2       3.229350343303      0.000005467999986      2.734005467999986      8.202005467999985
      16  2       3.229350343303      2.734005467999986      0.000005467999986      8.202005467999985
      17  1      -1.611527656697      1.367005467999986      1.367005467999986      6.835005467999986
      18  1      -1.611527656697      4.101005467999986      1.367005467999986      6.835005467999986
      19  1      -1.611527656697      4.101005467999986      4.101005467999986      6.835005467999986
      20  1      -1.611527656697      4.101005467999986      1.367005467999986      9.569005467999984
      21  1      -1.611527656697      4.101005467999986      4.101005467999986      9.569005467999984
      22  1      -1.611527656697      1.367005467999986      4.101005467999986      6.835005467999986
      23  1      -1.611527656697      1.367005467999986      1.367005467999986      9.569005467999984
      24  1      -1.611527656697      1.367005467999986      4.101005467999986      9.569005467999984
      25  2       3.229350343303      0.000005467999986      0.000005467999986     10.936005467999983
      26  2       3.229350343303      2.734005467999986      2.734005467999986     10.936005467999983
      27  2       3.229350343303      0.000005467999986      2.734005467999986     13.670005467999985
      28  2       3.229350343303      2.734005467999986      0.000005467999986     13.670005467999985
      29  1      -1.611527656697      1.367005467999986      1.367005467999986     12.303005467999984
      30  1      -1.611527656697      4.101005467999986      1.367005467999986     12.303005467999984
      31  1      -1.611527656697      4.101005467999986      4.101005467999986     12.303005467999984
      32  1      -1.611527656697      4.101005467999986      1.367005467999986     15.037005467999984
      33  1      -1.611527656697      4.101005467999986      4.101005467999986     15.037005467999984
      34  1      -1.611527656697      1.367005467999986      4.101005467999986     12.303005467999984
      35  1      -1.611527656697      1.367005467999986      1.367005467999986     15.037005467999984
      36  1      -1.611527656697      1.367005467999986      4.101005467999986     15.037005467999984
      37  2       3.229350343303      0.000005467999986      0.000005467999986     16.404005467999983
      38  2       3.229350343303      2.734005467999986      2.734005467999986     16.404005467999983
      39  2       3.229350343303      0.000005467999986      2.734005467999986     19.138005467999985
      40  2       3.229350343303      2.734005467999986      0.000005467999986     19.138005467999985
      41  1      -1.611527656697      1.367005467999986      1.367005467999986     17.771005467999984
      42  1      -1.611527656697      4.101005467999986      1.367005467999986     17.771005467999984
      43  1      -1.611527656697      4.101005467999986      4.101005467999986     17.771005467999984
      44  1      -1.611527656697      4.101005467999986      1.367005467999986     20.505005467999986
      45  1      -1.611527656697      4.101005467999986      4.101005467999986     20.505005467999986
      46  1      -1.611527656697      1.367005467999986      4.101005467999986     17.771005467999984
      47  1      -1.611527656697      1.367005467999986      1.367005467999986     20.505005467999986
      48  1      -1.611527656697      1.367005467999986      4.101005467999986     20.505005467999986
      49  2       3.229350343303      0.000005467999986      5.468005467999985      0.000005467999986
      50  2       3.229350343303      2.734005467999986      8.202005467999985      0.000005467999986
      51  2       3.229350343303      0.000005467999986      8.202005467999985      2.734005467999986
      52  2       3.229350343303      2.734005467999986      5.468005467999985      2.734005467999986
      53  1      -1.611527656697      1.367005467999986      6.835005467999986      1.367005467999986
      54  1      -1.611527656697      4.101005467999986      6.835005467999986      1.367005467999986
      55  1      -1.611527656697      4.101005467999986      9.569005467999984      1.367005467999986
      56  1      -1.611527656697      4.101005467999986      6.835005467999986      4.101005467999986
      57  1      -1.611527656697      4.101005467999986      9.569005467999984      4.101005467999986
      58  1      -1.611527656697      1.367005467999986      9.569005467999984      1.367005467999986
      59  1      -1.611527656697      1.367005467999986      6.835005467999986      4.101005467999986
      60  1      -1.611527656697      1.367005467999986      9.569005467999984      4.101005467999986
      61  2       3.229350343303      0.000005467999986      5.468005467999985      5.468005467999985
      62  2       3.229350343303      2.734005467999986      8.202005467999985      5.468005467999985
      63  2       3.229350343303      0.000005467999986      8.202005467999985      8.202005467999985
      64  2       3.229350343303      2.734005467999986      5.468005467999985      8.202005467999985
      65  1      -1.611527656697      1.367005467999986      6.835005467999986      6.835005467999986
      66  1      -1.611527656697      4.101005467999986      6.835005467999986      6.835005467999986
      67  1      -1.611527656697      4.101005467999986      9.569005467999984      6.835005467999986
      68  1      -1.611527656697      4.101005467999986      6.835005467999986      9.569005467999984
      69  1      -1.611527656697      4.101005467999986      9.569005467999984      9.569005467999984
      70  1      -1.611527656697      1.367005467999986      9.569005467999984      6.835005467999986
      71  1      -1.611527656697      1.367005467999986      6.835005467999986      9.569005467999984
      72  1      -1.611527656697      1.367005467999986      9.569005467999984      9.569005467999984
      73  2       3.229350343303      0.000005467999986      5.468005467999985     10.936005467999983
      74  2       3.229350343303      2.734005467999986      8.202005467999985     10.936005467999983
      75  2       3.229350343303      0.000005467999986      8.202005467999985     13.670005467999985
      76  2       3.229350343303      2.734005467999986      5.468005467999985     13.670005467999985
      77  1      -1.611527656697      1.367005467999986      6.835005467999986     12.303005467999984
      78  1      -1.611527656697      4.101005467999986      6.835005467999986     12.303005467999984
      79  1      -1.611527656697      4.101005467999986      9.569005467999984     12.303005467999984
      80  1      -1.611527656697      4.101005467999986      6.835005467999986     15.037005467999984
      81  1      -1.611527656697      4.101005467999986      9.569005467999984     15.037005467999984
      82  1      -1.611527656697      1.367005467999986      9.569005467999984     12.303005467999984
      83  1      -1.611527656697      1.367005467999986      6.835005467999986     15.037005467999984
      84  1      -1.611527656697      1.367005467999986      9.569005467999984     15.037005467999984
      85  2       3.229350343303      0.000005467999986      5.468005467999985     16.404005467999983
      86  2       3.229350343303      2.734005467999986      8.202005467999985     16.404005467999983
      87  2       3.229350343303      0.000005467999986      8.202005467999985     19.138005467999985
      88  2       3.229350343303      2.734005467999986      5.468005467999985     19.138005467999985
      89  1      -1.611527656697      1.367005467999986      6.835005467999986     17.771005467999984
      90  1      -1.611527656697      4.101005467999986      6.835005467999986     17.771005467999984
      91  1      -1.611527656697      4.101005467999986      9.569005467999984     17.771005467999984
      92  1      -1.611527656697      4.101005467999986      6.835005467999986     20.505005467999986
      93  1      -1.611527656697      4.101005467999986      9.569005467999984     20.505005467999986
      94  1      -1.611527656697      1.367005467999986      9.569005467999984     17.771005467999984
      95  1      -1.611527656697      1.367005467999986      6.835005467999986     20.505005467999986
      96  1      -1.611527656697      1.367005467999986      9.569005467999984     20.505005467999986
      97  2       3.229350343303      0.000005467999986     10.936005467999983      0.000005467999986
      98  2       3.229350343303      2.734005467999986     13.670005467999985      0.000005467999986
      99  2       3.229350343303      0.000005467999986     13.670005467999985      2.734005467999986
     100  2       3.229350343303      2.734005467999986     10.936005467999983      2.734005467999986
     101  1      -1.611527656697      1.367005467999986     12.303005467999984      1.367005467999986
     102  1      -1.611527656697      4.101005467999986     12.303005467999984      1.367005467999986
     103  1      -1.611527656697      4.101005467999986     15.037005467999984      1.367005467999986
     104  1      -1.611527656697      4.101005467999986     12.303005467999984      4.101005467999986
     105  1      -1.611527656697      4.101005467999986     15.037005467999984      4.101005467999986
     106  1      -1.611527656697      1.367005467999986     15.037005467999984      1.367005467999986
     107  1      -1.611527656697      1.367005467999986     12.303005467999984      4.101005467999986
     108  1      -1.611527656697      1.367005467999986     15.037005467999984      4.101005467999986
     109  2       3.229350343303      0.000005467999986     10.936005467999983      5.468005467999985
     110  2       3.229350343303      2.734005467999986     13.670005467999985      5.468005467999985
     111  2       3.229350343303      0.000005467999986     13.670005467999985      8.202005467999985
     112  2       3.229350343303      2.734005467999986     10.936005467999983      8.202005467999985
     113  1      -1.611527656697      1.367005467999986     12.303005467999984      6.835005467999986
     114  1      -1.611527656697      4.101005467999986     12.303005467999984      6.835005467999986
     115  1      -1.611527656697      4.101005467999986     15.037005467999984      6.835005467999986
     116  1      -1.611527656697      4.101005467999986     12.303005467999984      9.569005467999984
     117  1      -1.611527656697      4.101005467999986     15.037005467999984      9.569005467999984
     118  1      -1.611527656697      1.367005467999986     15.037005467999984      6.835005467999986
     119  1      -1.611527656697      1.367005467999986     12.303005467999984      9.569005467999984
     120  1      -1.611527656697      1.367005467999986     15.037005467999984      9.569005467999984
     121  2       3.229350343303      0.000005467999986     10.936005467999983     10.936005467999983
     122  2       3.229350343303      2.734005467999986     13.670005467999985     10.936005467999983
     123  2       3.229350343303      0.000005467999986     13.670005467999985     13.670005467999985
     124  2       3.229350343303      2.734005467999986     10.936005467999983     13.670005467999985
     125  1      -1.611527656697      1.367005467999986     12.303005467999984     12.303005467999984
     126  1      -1.611527656697      4.101005467999986     12.303005467999984     12.303005467999984
     127  1      -1.611527656697      4.101005467999986     15.037005467999984     12.303005467999984
     128  1      -1.611527656697      4.101005467999986     12.303005467999984     15.037005467999984
     129  1      -1.611527656697      4.101005467999986     15.037005467999984     15.037005467999984
     130  1      -1.611527656697      1.367005467999986     15.037005467999984     12.303005467999984
     131  1      -1.611527656697      1.367005467999986     12.303005467999984     15.037005467999984
     132  1      -1.611527656697      1.367005467999986     15.037005467999984     15.037005467999984
     133  2       3.229350343303      0.000005467999986     10.936005467999983     16.404005467999983
     134  2       3.229350343303      2.734005467999986     13.670005467999985     16.404005467999983
     135  2       3.229350343303      0.000005467999986     13.670005467999985     19.138005467999985
     136  2       3.229350343303      2.734005467999986     10.936005467999983     19.138005467999985
     137  1      -1.611527656697      1.367005467999986     12.303005467999984     17.771005467999984
     138  1      -1.611527656697      4.101005467999986     12.303005467999984     17.771005467999984
     139  1      -1.611527656697      4.101005467999986     15.037005467999984     17.771005467999984
     140  1      -1.611527656697      4.101005467999986     12.303005467999984     20.505005467999986
     141  1      -1.611527656697      4.101005467999986     15.037005467999984     20.505005467999986
     142  1      -1.611527656697      1.367005467999986     15.037005467999984     17.771005467999984
     143  1      -1.611527656697      1.367005467999986     12.303005467999984     20.505005467999986
     144  1      -1.611527656697      1.367005467999986     15.037005467999984     20.505005467999986
     145  2       3.229350343303      0.000005467999986     16.404005467999983      0.000005467999986
     146  2       3.229350343303      2.734005467999986     19.138005467999985      0.000005467999986
     147  2       3.229350343303      0.000005467999986     19.138005467999985      2.734005467999986
     148  2       3.229350343303      2.734005467999986     16.404005467999983      2.734005467999986
     149  1      -1.611527656697      1.367005467999986     17.771005467999984      1.367005467999986
     150  1      -1.611527656697      4.101005467999986     17.771005467999984      1.367005467999986
     151  1      -1.611527656697      4.101005467999986     20.505005467999986      1.367005467999986
     152  1      -1.611527656697      4.101005467999986     17.771005467999984      4.101005467999986
     153  1      -1.611527656697      4.101005467999986     20.505005467999986      4.101005467999986
     154  1      -1.611527656697      1.367005467999986     20.505005467999986      1.367005467999986
     155  1      -1.611527656697      1.367005467999986     17.771005467999984      4.101005467999986
     156  1      -1.611527656697      1.367005467999986     20.505005467999986      4.101005467999986
     157  2       3.229350343303      0.000005467999986     16.404005467999983      5.468005467999985
     158  2       3.229350343303      2.734005467999986     19.138005467999985      5.468005467999985
     159  2       3.229350343303      0.000005467999986     19.138005467999985      8.202005467999985
     160  2       3.229350343303      2.734005467999986     16.404005467999983      8.202005467999985
     161  1      -1.611527656697      1.367005467999986     17.771005467999984      6.835005467999986
     162  1      -1.611527656697      4.101005467999986     17.771005467999984      6.835005467999986
     163  1      -1.611527656697      4.101005467999986     20.505005467999986      6.835005467999986
     164  1      -1.611527656697      4.101005467999986     17.771005467999984      9.569005467999984
     165  1      -1.611527656697      4.101005467999986     20.505005467999986      9.569005467999984
     166  1      -1.611527656697      1.367005467999986     20.505005467999986      6.835005467999986
     167  1      -1.611527656697      1.367005467999986     17.771005467999984      9.569005467999984
     168  1      -1.611527656697      1.367005467999986     20.505005467999986      9.569005467999984
     169  2       3.229350343303      0.000005467999986     16.404005467999983     10.936005467999983
     170  2       3.229350343303      2.734005467999986     19.138005467999985     10.936005467999983
     171  2       3.229350343303      0.000005467999986     19.138005467999985     13.670005467999985
     172  2       3.229350343303      2.734005467999986     16.404005467999983     13.670005467999985
     173  1      -1.611527656697      1.367005467999986     17.771005467999984     12.303005467999984
     174  1      -1.611527656697      4.101005467999986     17.771005467999984     12.303005467999984
     175  1      -1.611527656697      4.101005467999986     20.505005467999986     12.303005467999984
     176  1      -1.611527656697      4.101005467999986     17.771005467999984     15.037005467999984
     177  1      -1.611527656697      4.101005467999986     20.505005467999986     15.037005467999984
     178  1      -1.611527656697      1.367005467999986     20.505005467999986     12.303005467999984
     179  1      -1.611527656697      1.367005467999986     17.771005467999984     15.037005467999984
     180  1      -1.611527656697      1.367005467999986     20.505005467999986     15.037005467999984
     181  2       3.229350343303      0.000005467999986     16.404005467999983     16.404005467999983
     182  2       3.229350343303      2.734005467999986     19.138005467999985     16.404005467999983
     183  2       3.229350343303      0.000005467999986     19.138005467999985     19.138005467999985
     184  2       3.229350343303      2.734005467999986     16.404005467999983     19.138005467999985
     185  1      -1.611527656697      1.367005467999986     17.771005467999984     17.771005467999984
     186  1      -1.611527656697      4.101005467999986     17.771005467999984     17.771005467999984
     187  1      -1.611527656697      4.101005467999986     20.505005467999986     17.771005467999984
     188  1      -1.611527656697      4.101005467999986     17.771005467999984     20.505005467999986
     189  1      -1.611527656697      4.101005467999986     20.505005467999986     20.505005467999986
     190  1      -1.611527656697      1.367005467999986     20.505005467999986     17.771005467999984
     191  1      -1.611527656697      1.367005467999986     17.771005467999984     20.505005467999986
     192  1      -1.611527656697      1.367005467999986     20.505005467999986     20.505005467999986
     193  2       3.229350343303      5.468005467999985      0.000005467999986      0.000005467999986
     194  2       3.229350343303      8.202005467999985      2.734005467999986      0.000005467999986
     195  2       3.229350343303      5.468005467999985      2.734005467999986      2.734005467999986
     196  2       3.229350343303      8.202005467999985      0.000005467999986      2.734005467999986
     197  1      -1.611527656697      6.835005467999986      1.367005467999986      1.367005467999986
     198  1      -1.611527656697      9.569005467999984      1.367005467999986      1.367005467999986
     199  1      -1.611527656697      9.569005467999984      4.101005467999986      1.367005467999986
     200  1      -1.611527656697      9.569005467999984      1.367005467999986      4.101005467999986
     201  1      -1.611527656697      9.569005467999984      4.101005467999986      4.101005467999986
     202  1      -1.611527656697      6.835005467999986      4.101005467999986      1.367005467999986
     203  1      -1.611527656697      6.835005467999986      1.367005467999986      4.101005467999986
     204  1      -1.611527656697      6.835005467999986      4.101005467999986      4.101005467999986
     205  2       3.229350343303      5.468005467999985      0.000005467999986      5.468005467999985
     206  2       3.229350343303      8.202005467999985      2.734005467999986      5.468005467999985
     207  2       3.229350343303      5.468005467999985      2.734005467999986      8.202005467999985
     208  2       3.229350343303      8.202005467999985      0.000005467999986      8.202005467999985
     209  1      -1.611527656697      6.835005467999986      1.367005467999986      6.835005467999986
     210  1      -1.611527656697      9.569005467999984      1.367005467999986      6.835005467999986
     211  1      -1.611527656697      9.569005467999984      4.101005467999986      6.835005467999986
     212  1      -1.611527656697      9.569005467999984      1.367005467999986      9.569005467999984
     213  1      -1.611527656697      9.569005467999984      4.101005467999986      9.569005467999984
     214  1      -1.611527656697      6.835005467999986      4.101005467999986      6.835005467999986
     215  1      -1.611527656697      6.835005467999986      1.367005467999986      9.569005467999984
     216  1      -1.611527656697      6.835005467999986      4.101005467999986      9.569005467999984
     217  2       3.229350343303      5.468005467999985      0.000005467999986     10.936005467999983
     218  2       3.229350343303      8.202005467999985      2.734005467999986     10.936005467999983
     219  2       3.229350343303      5.468005467999985      2.734005467999986     13.670005467999985
     220  2       3.229350343303      8.202005467999985      0.000005467999986     13.670005467999985
     221  1      -1.611527656697      6.835005467999986      1.367005467999986     12.303005467999984
     222  1      -1.611527656697      9.569005467999984      1.367005467999986     12.303005467999984
     223  1      -1.611527656697      9.569005467999984      4.101005467999986     12.303005467999984
     224  1      -1.611527656697      9.569005467999984      1.367005467999986     15.037005467999984
     225  1      -1.611527656697      9.569005467999984      4.101005467999986     15.037005467999984
     226  1      -1.611527656697      6.835005467999986      4.101005467999986     12.303005467999984
     227  1      -1.611527656697      6.835005467999986      1.367005467999986     15.037005467999984
     228  1      -1.611527656697      6.835005467999986      4.101005467999986     15.037005467999984
     229  2       3.229350343303      5.468005467999985      0.000005467999986     16.404005467999983
     230  2       3.229350343303      8.202005467999985      2.734005467999986     16.404005467999983
     231  2       3.229350343303      5.468005467999985      2.734005467999986     19.138005467999985
     232  2       3.229350343303      8.202005467999985      0.000005467999986     19.138005467999985
     233  1      -1.611527656697      6.835005467999986      1.367005467999986     17.771005467999984
     234  1      -1.611527656697      9.569005467999984      1.367005467999986     17.771005467999984
     235  1      -1.611527656697      9.569005467999984      4.101005467999986     17.771005467999984
     236  1      -1.611527656697      9.569005467999984      1.367005467999986     20.505005467999986
     237  1      -1.611527656697      9.569005467999984      4.101005467999986     20.505005467999986
     238  1      -1.611527656697      6.835005467999986      4.101005467999986     17.771005467999984
     239  1      -1.611527656697      6.835005467999986      1.367005467999986     20.505005467999986
     240  1      -1.611527656697      6.835005467999986      4.101005467999986     20.505005467999986
     241  2       3.229350343303      5.468005467999985      5.468005467999985      0.000005467999986
     242  2       3.229350343303      8.202005467999985      8.202005467999985      0.000005467999986
     243  2       3.229350343303      5.468005467999985      8.202005467999985      2.734005467999986
     244  2       3.229350343303      8.202005467999985      5.468005467999985      2.734005467999986
     245  1      -1.611527656697      6.835005467999986      6.835005467999986      1.367005467999986
     246  1      -1.611527656697      9.569005467999984      6.835005467999986      1.367005467999986
     247  1      -1.611527656697      9.569005467999984      9.569005467999984      1.367005467999986
     248  1      -1.611527656697      9.569005467999984      6.835005467999986      4.101005467999986
     249  1      -1.611527656697      9.569005467999984      9.569005467999984      4.101005467999986
     250  1      -1.611527656697      6.835005467999986      9.569005467999984      1.367005467999986
     251  1      -1.611527656697      6.835005467999986      6.835005467999986      4.101005467999986
     252  1      -1.611527656697      6.835005467999986      9.569005467999984      4.101005467999986
     253  2       3.229350343303      5.468005467999985      5.468005467999985      5.468005467999985
     254  2       3.229350343303      8.202005467999985      8.202005467999985      5.468005467999985
     255  2       3.229350343303      5.468005467999985      8.202005467999985      8.202005467999985
     256  2       3.229350343303      8.202005467999985      5.468005467999985      8.202005467999985
     257  1      -1.611527656697      6.835005467999986      6.835005467999986      6.835005467999986
     258  1      -1.611527656697      9.569005467999984      6.835005467999986      6.835005467999986
     259  1      -1.611527656697      9.569005467999984      9.569005467999984      6.835005467999986
     260  1      -1.611527656697      9.569005467999984      6.835005467999986      9.569005467999984
     261  1      -1.611527656697      9.569005467999984      9.569005467999984      9.569005467999984
     262  1      -1.611527656697      6.835005467999986      9.569005467999984      6.835005467999986
     263  1      -1.611527656697      6.835005467999986      6.835005467999986      9.569005467999984
     264  1      -1.611527656697      6.835005467999986      9.569005467999984      9.569005467999984
     265  2       3.229350343303      5.468005467999985      5.468005467999985     10.936005467999983
     266  2       3.229350343303      8.202005467999985      8.202005467999985     10.936005467999983
     267  2       3.229350343303      5.468005467999985      8.202005467999985     13.670005467999985
     268  2       3.229350343303      8.202005467999985      5.468005467999985     13.670005467999985
     269  1      -1.611527656697      6.835005467999986      6.835005467999986     12.303005467999984
     270  1      -1.611527656697      9.569005467999984      6.835005467999986     12.303005467999984
     271  1      -1.611527656697      9.569005467999984      9.569005467999984     12.303005467999984
     272  1      -1.611527656697      9.569005467999984      6.835005467999986     15.037005467999984
     273  1      -1.611527656697      9.569005467999984      9.569005467999984     15.037005467999984
     274  1      -1.611527656697      6.835005467999986      9.569005467999984     12.303005467999984
     275  1      -1.611527656697      6.835005467999986      6.835005467999986     15.037005467999984
     276  1      -1.611527656697      6.835005467999986      9.569005467999984     15.037005467999984
     277  2       3.229350343303      5.468005467999985      5.468005467999985     16.404005467999983
     278  2       3.229350343303      8.202005467999985      8.202005467999985     16.404005467999983
     279  2       3.229350343303      5.468005467999985      8.202005467999985     19.138005467999985
     280  2       3.229350343303      8.202005467999985      5.468005467999985     19.138005467999985
     281  1      -1.611527656697      6.835005467999986      6.835005467999986     17.771005467999984
     282  1      -1.611527656697      9.569005467999984      6.835005467999986     17.771005467999984
     283  1      -1.611527656697      9.569005467999984      9.569005467999984     17.771005467999984
     284  1      -1.611527656697      9.569005467999984      6.835005467999986     20.505005467999986
     285  1      -1.611527656697      9.569005467999984      9.569005467999984     20.505005467999986
     286  1      -1.611527656697      6.835005467999986      9.569005467999984     17.771005467999984
     287  1      -1.611527656697      6.835005467999986      6.835005467999986     20.505005467999986
     288  1      -1.611527656697      6.835005467999986      9.569005467999984     20.505005467999986
     289  2       3.229350343303      5.468005467999985     10.936005467999983      0.000005467999986
     290  2       3.229350343303      8.202005467999985     13.670005467999985      0.000005467999986
     291  2       3.229350343303      5.468005467999985     13.670005467999985      2.734005467999986
     292  2       3.229350343303      8.202005467999985     10.936005467999983      2.734005467999986
     293  1      -1.611527656697      6.835005467999986     12.303005467999984      1.367005467999986
     294  1      -1.611527656697      9.569005467999984     12.303005467999984      1.367005467999986
     295  1      -1.611527656697      9.569005467999984     15.037005467999984      1.367005467999986
     296  1      -1.611527656697      9.569005467999984     12.303005467999984      4.101005467999986
     297  1      -1.611527656697      9.569005467999984     15.037005467999984      4.101005467999986
     298  1      -1.611527656697      6.835005467999986     15.037005467999984      1.367005467999986
     299  1      -1.611527656697      6.835005467999986     12.303005467999984      4.101005467999986
     300  1      -1.611527656697      6.835005467999986     15.037005467999984      4.101005467999986
     301  2       3.229350343303      5.468005467999985     10.936005467999983      5.468005467999985
     302  2       3.229350343303      8.202005467999985     13.670005467999985      5.468005467999985
     303  2       3.229350343303      5.468005467999985     13.670005467999985      8.202005467999985
     304  2       3.229350343303      8.202005467999985     10.936005467999983      8.202005467999985
     305  1      -1.611527656697      6.835005467999986     12.303005467999984      6.835005467999986
     306  1      -1.611527656697      9.569005467999984     12.303005467999984      6.835005467999986
     307  1      -1.611527656697      9.569005467999984     15.037005467999984      6.835005467999986
     308  1      -1.611527656697      9.569005467999984     12.303005467999984      9.569005467999984
     309  1      -1.611527656697      9.569005467999984     15.037005467999984      9.569005467999984
     310  1      -1.611527656697      6.835005467999986     15.037005467999984      6.835005467999986
     311  1      -1.611527656697      6.835005467999986     12.303005467999984      9.569005467999984
     312  1      -1.611527656697      6.835005467999986     15.037005467999984      9.569005467999984
     313  2       3.229350343303      5.468005467999985     10.936005467999983     10.936005467999983
     314  2       3.229350343303      8.202005467999985     13.670005467999985     10.936005467999983
     315  2       3.229350343303      5.468005467999985     13.670005467999985     13.670005467999985
     316  2       3.229350343303      8.202005467999985     10.936005467999983     13.670005467999985
     317  1      -1.611527656697      6.835005467999986     12.303005467999984     12.303005467999984
     318  1      -1.611527656697      9.569005467999984     12.303005467999984     12.303005467999984
     319  1      -1.611527656697      9.569005467999984     15.037005467999984     12.303005467999984
     320  1      -1.611527656697      9.569005467999984     12.303005467999984     15.037005467999984
     321  1      -1.611527656697      9.569005467999984     15.037005467999984     15.037005467999984
     322  1      -1.611527656697      6.835005467999986     15.037005467999984     12.303005467999984
     323  1      -1.611527656697      6.835005467999986     12.303005467999984     15.037005467999984
     324  1      -1.611527656697      6.835005467999986     15.037005467999984     15.037005467999984
     325  2       3.229350343303      5.468005467999985     10.936005467999983     16.404005467999983
     326  2       3.229350343303      8.202005467999985     13.670005467999985     16.404005467999983
     327  2       3.229350343303      5.468005467999985     13.670005467999985     19.138005467999985
     328  2       3.229350343303      8.202005467999985     10.936005467999983     19.138005467999985
     329  1      -1.611527656697      6.835005467999986     12.303005467999984     17.771005467999984
     330  1      -1.611527656697      9.569005467999984     12.303005467999984     17.771005467999984
     331  1      -1.611527656697      9.569005467999984     15.037005467999984     17.771005467999984
     332  1      -1.611527656697      9.569005467999984     12.303005467999984     20.505005467999986
     333  1      -1.611527656697      9.569005467999984     15.037005467999984     20.505005467999986
     334  1      -1.611527656697      6.835005467999986     15.037005467999984     17.771005467999984
     335  1      -1.611527656697      6.835005467999986     12.303005467999984     20.505005467999986
     336  1      -1.611527656697      6.835005467999986     15.037005467999984     20.505005467999986
     337  2       3.229350343303      5.468005467999985     16.404005467999983      0.000005467999986
     338  2       3.229350343303      8.202005467999985     19.138005467999985      0.000005467999986
     339  2       3.229350343303      5.468005467999985     19.138005467999985      2.734005467999986
     340  2       3.229350343303      8.202005467999985     16.404005467999983      2.734005467999986
     341  1      -1.611527656697      6.835005467999986     17.771005467999984      1.367005467999986
     342  1      -1.611527656697      9.569005467999984     17.771005467999984      1.367005467999986
     343  1      -1.611527656697      9.569005467999984     20.505005467999986      1.367005467999986
     344  1      -1.611527656697      9.569005467999984     17.771005467999984      4.101005467999986
     345  1      -1.611527656697      9.569005467999984     20.505005467999986      4.101005467999986
     346  1      -1.611527656697      6.835005467999986     20.505005467999986      1.367005467999986
     347  1      -1.611527656697      6.835005467999986     17.771005467999984      4.101005467999986
     348  1      -1.611527656697      6.835005467999986     20.505005467999986      4.101005467999986
     349  2       3.229350343303      5.468005467999985     16.404005467999983      5.468005467999985
     350  2       3.229350343303      8.202005467999985     19.138005467999985      5.468005467999985
     351  2       3.229350343303      5.468005467999985     19.138005467999985      8.202005467999985
     352  2       3.229350343303      8.202005467999985     16.404005467999983      8.202005467999985
     353  1      -1.611527656697      6.835005467999986     17.771005467999984      6.835005467999986
     354  1      -1.611527656697      9.569005467999984     17.771005467999984      6.835005467999986
     355  1      -1.611527656697      9.569005467999984     20.505005467999986      6.835005467999986
     356  1      -1.611527656697      9.569005467999984     17.771005467999984      9.569005467999984
     357  1      -1.611527656697      9.569005467999984     20.505005467999986      9.569005467999984
     358  1      -1.611527656697      6.835005467999986     20.505005467999986      6.835005467999986
     359  1      -1.611527656697      6.835005467999986     17.771005467999984      9.569005467999984
     360  1      -1.611527656697      6.835005467999986     20.505005467999986      9.569005467999984
     361  2       3.229350343303      5.468005467999985     16.404005467999983     10.936005467999983
     362  2       3.229350343303      8.202005467999985     19.138005467999985     10.936005467999983
     363  2       3.229350343303      5.468005467999985     19.138005467999985     13.670005467999985
     364  2       3.229350343303      8.202005467999985     16.404005467999983     13.670005467999985
     365  1      -1.611527656697      6.835005467999986     17.771005467999984     12.303005467999984
     366  1      -1.611527656697      9.569005467999984     17.771005467999984     12.303005467999984
     367  1      -1.611527656697      9.569005467999984     20.505005467999986     12.303005467999984
     368  1      -1.611527656697      9.569005467999984     17.771005467999984     15.037005467999984
     369  1      -1.611527656697      9.569005467999984     20.505005467999986     15.037005467999984
     370  1      -1.611527656697      6.835005467999986     20.505005467999986     12.303005467999984
     371  1      -1.611527656697      6.835005467999986     17.771005467999984     15.037005467999984
     372  1      -1.611527656697      6.835005467999986     20.505005467999986     15.037005467999984
     373  2       3.229350343303      5.468005467999985     16.404005467999983     16.404005467999983
     374  2       3.229350343303      8.202005467999985     19.138005467999985     16.404005467999983
     375  2       3.229350343303      5.468005467999985     19.138005467999985     19.138005467999985
     376  2       3.229350343303      8.202005467999985     16.404005467999983     19.138005467999985
     377  1      -1.611527656697      6.835005467999986     17.771005467999984     17.771005467999984
     378  1      -1.611527656697      9.569005467999984     17.771005467999984     17.771005467999984
     379  1      -1.611527656697      9.569005467999984     20.505005467999986     17.771005467999984
     380  1      -1.611527656697      9.569005467999984     17.771005467999984     20.505005467999986
     381  1      -1.611527656697      9.569005467999984     20.505005467999986     20.505005467999986
     382  1      -1.611527656697      6.835005467999986     20.505005467999986     17.771005467999984
     383  1      -1.611527656697      6.835005467999986     17.771005467999984     20.505005467999986
     384  1      -1.611527656697      6.835005467999986     20.505005467999986     20.505005467999986
     385  2       3.229350343303     10.936005467999983      0.000005467999986      0.000005467999986
     386  2       3.229350343303     13.670005467999985      2.734005467999986      0.000005467999986
     387  2       3.229350343303     10.936005467999983      2.734005467999986      2.734005467999986
     388  2       3.229350343303     13.670005467999985      0.000005467999986      2.734005467999986
     389  1      -1.611527656697     12.303005467999984      1.367005467999986      1.367005467999986
     390  1      -1.611527656697     15.037005467999984      1.367005467999986      1.367005467999986
     391  1      -1.611527656697     15.037005467999984      4.101005467999986      1.367005467999986
     392  1      -1.611527656697     15.037005467999984      1.367005467999986      4.101005467999986
     393  1      -1.611527656697     15.037005467999984      4.101005467999986      4.101005467999986
     394  1      -1.611527656697     12.303005467999984      4.101005467999986      1.367005467999986
     395  1      -1.611527656697     12.303005467999984      1.367005467999986      4.101005467999986
     396  1      -1.611527656697     12.303005467999984      4.101005467999986      4.101005467999986
     397  2       3.229350343303     10.936005467999983      0.000005467999986      5.468005467999985
     398  2       3.229350343303     13.670005467999985      2.734005467999986      5.468005467999985
     399  2       3.229350343303     10.936005467999983      2.734005467999986      8.202005467999985
     400  2       3.229350343303     13.670005467999985      0.000005467999986      8.202005467999985
     401  1      -1.611527656697     12.303005467999984      1.367005467999986      6.835005467999986
     402  1      -1.611527656697     15.037005467999984      1.367005467999986      6.835005467999986
     403  1      -1.611527656697     15.037005467999984      4.101005467999986      6.835005467999986
     404  1      -1.611527656697     15.037005467999984      1.367005467999986      9.569005467999984
     405  1      -1.611527656697     15.037005467999984      4.101005467999986      9.569005467999984
     406  1      -1.611527656697     12.303005467999984      4.101005467999986      6.835005467999986
     407  1      -1.611527656697     12.303005467999984      1.367005467999986      9.569005467999984
     408  1      -1.611527656697     12.303005467999984      4.101005467999986      9.569005467999984
     409  2       3.229350343303     10.936005467999983      0.000005467999986     10.936005467999983
     410  2       3.229350343303     13.670005467999985      2.734005467999986     10.936005467999983
     411  2       3.229350343303     10.936005467999983      2.734005467999986     13.670005467999985
     412  2       3.229350343303     13.670005467999985      0.000005467999986     13.670005467999985
     413  1      -1.611527656697     12.303005467999984      1.367005467999986     12.303005467999984
     414  1      -1.611527656697     15.037005467999984      1.367005467999986     12.303005467999984
     415  1      -1.611527656697     15.037005467999984      4.101005467999986     12.303005467999984
     416  1      -1.611527656697     15.037005467999984      1.367005467999986     15.037005467999984
     417  1      -1.611527656697     15.037005467999984      4.101005467999986     15.037005467999984
     418  1      -1.611527656697     12.303005467999984      4.101005467999986     12.303005467999984
     419  1      -1.611527656697     12.303005467999984      1.367005467999986     15.037005467999984
     420  1      -1.611527656697     12.303005467999984      4.101005467999986     15.037005467999984
     421  2       3.229350343303     10.936005467999983      0.000005467999986     16.404005467999983
     422  2       3.229350343303     13.670005467999985      2.734005467999986     16.404005467999983
     423  2       3.229350343303     10.936005467999983      2.734005467999986     19.138005467999985
     424  2       3.229350343303     13.670005467999985      0.000005467999986     19.138005467999985
     425  1      -1.611527656697     12.303005467999984      1.367005467999986     17.771005467999984
     426  1      -1.611527656697     15.037005467999984      1.367005467999986     17.771005467999984
     427  1      -1.611527656697     15.037005467999984      4.101005467999986     17.771005467999984
     428  1      -1.611527656697     15.037005467999984      1.367005467999986     20.505005467999986
     429  1      -1.611527656697     15.037005467999984      4.101005467999986     20.505005467999986
     430  1      -1.611527656697     12.303005467999984      4.101005467999986     17.771005467999984
     431  1      -1.611527656697     12.303005467999984      1.367005467999986     20.505005467999986
     432  1      -1.611527656697     12.303005467999984      4.101005467999986     20.505005467999986
     433  2       3.229350343303     10.936005467999983      5.468005467999985      0.000005467999986
     434  2       3.229350343303     13.670005467999985      8.202005467999985      0.000005467999986
     435  2       3.229350343303     10.936005467999983      8.202005467999985      2.734005467999986
     436  2       3.229350343303     13.670005467999985      5.468005467999985      2.734005467999986
     437  1      -1.611527656697     12.303005467999984      6.835005467999986      1.367005467999986
     438  1      -1.611527656697     15.037005467999984      6.835005467999986      1.367005467999986
     439  1      -1.611527656697     15.037005467999984      9.569005467999984      1.367005467999986
     440  1      -1.611527656697     15.037005467999984      6.835005467999986      4.101005467999986
     441  1      -1.611527656697     15.037005467999984      9.569005467999984      4.101005467999986
     442  1      -1.611527656697     12.303005467999984      9.569005467999984      1.367005467999986
     443  1      -1.611527656697     12.303005467999984      6.835005467999986      4.101005467999986
     444  1      -1.611527656697     12.303005467999984      9.569005467999984      4.101005467999986
     445  2       3.229350343303     10.936005467999983      5.468005467999985      5.468005467999985
     446  2       3.229350343303     13.670005467999985      8.202005467999985      5.468005467999985
     447  2       3.229350343303     10.936005467999983      8.202005467999985      8.202005467999985
     448  2       3.229350343303     13.670005467999985      5.468005467999985      8.202005467999985
     449  1      -1.611527656697     12.303005467999984      6.835005467999986      6.835005467999986
     450  1      -1.611527656697     15.037005467999984      6.835005467999986      6.835005467999986
     451  1      -1.611527656697     15.037005467999984      9.569005467999984      6.835005467999986
     452  1      -1.611527656697     15.037005467999984      6.835005467999986      9.569005467999984
     453  1      -1.611527656697     15.037005467999984      9.569005467999984      9.569005467999984
     454  1      -1.611527656697     12.303005467999984      9.569005467999984      6.835005467999986
     455  1      -1.611527656697     12.303005467999984      6.835005467999986      9.569005467999984
     456  1      -1.611527656697     12.303005467999984      9.569005467999984      9.569005467999984
     457  2       3.229350343303     10.936005467999983      5.468005467999985     10.936005467999983
     458  2       3.229350343303     13.670005467999985      8.202005467999985     10.936005467999983
     459  2       3.229350343303     10.936005467999983      8.202005467999985     13.670005467999985
     460  2       3.229350343303     13.670005467999985      5.468005467999985     13.670005467999985
     461  1      -1.611527656697     12.303005467999984      6.835005467999986     12.303005467999984
     462  1      -1.611527656697     15.037005467999984      6.835005467999986     12.303005467999984
     463  1      -1.611527656697     15.037005467999984      9.569005467999984     12.303005467999984
     464  1      -1.611527656697     15.037005467999984      6.835005467999986     15.037005467999984
     465  1      -1.611527656697     15.037005467999984      9.569005467999984     15.037005467999984
     466  1      -1.611527656697     12.303005467999984      9.569005467999984     12.303005467999984
     467  1      -1.611527656697     12.303005467999984      6.835005467999986     15.037005467999984
     468  1      -1.611527656697     12.303005467999984      9.569005467999984     15.037005467999984
     469  2       3.229350343303     10.936005467999983      5.468005467999985     16.404005467999983
     470  2       3.229350343303     13.670005467999985      8.202005467999985     16.404005467999983
     471  2       3.229350343303     10.936005467999983      8.202005467999985     19.138005467999985
     472  2       3.229350343303     13.670005467999985      5.468005467999985     19.138005467999985
     473  1      -1.611527656697     12.303005467999984      6.835005467999986     17.771005467999984
     474  1      -1.611527656697     15.037005467999984      6.835005467999986     17.771005467999984
     475  1      -1.611527656697     15.037005467999984      9.569005467999984     17.771005467999984
     476  1      -1.611527656697     15.037005467999984      6.835005467999986     20.505005467999986
     477  1      -1.611527656697     15.037005467999984      9.569005467999984     20.505005467999986
     478  1      -1.611527656697     12.303005467999984      9.569005467999984     17.771005467999984
     479  1      -1.611527656697     12.303005467999984      6.835005467999986     20.505005467999986
     480  1      -1.611527656697     12.303005467999984      9.569005467999984     20.505005467999986
     481  2       3.229350343303     10.936005467999983     10.936005467999983      0.000005467999986
     482  2       3.229350343303     13.670005467999985     13.670005467999985      0.000005467999986
     483  2       3.229350343303     10.936005467999983     13.670005467999985      2.734005467999986
     484  2       3.229350343303     13.670005467999985     10.936005467999983      2.734005467999986
     485  1      -1.611527656697     12.303005467999984     12.303005467999984      1.367005467999986
     486  1      -1.611527656697     15.037005467999984     12.303005467999984      1.367005467999986
     487  1      -1.611527656697     15.037005467999984     15.037005467999984      1.367005467999986
     488  1      -1.611527656697     15.037005467999984     12.303005467999984      4.101005467999986
     489  1      -1.611527656697     15.037005467999984     15.037005467999984      4.101005467999986
     490  1      -1.611527656697     12.303005467999984     15.037005467999984      1.367005467999986
     491  1      -1.611527656697     12.303005467999984     12.303005467999984      4.101005467999986
     492  1      -1.611527656697     12.303005467999984     15.037005467999984      4.101005467999986
     493  2       3.229350343303     10.936005467999983     10.936005467999983      5.468005467999985
     494  2       3.229350343303     13.670005467999985     13.670005467999985      5.468005467999985
     495  2       3.229350343303     10.936005467999983     13.670005467999985      8.202005467999985
     496  2       3.229350343303     13.670005467999985     10.936005467999983      8.202005467999985
     497  1      -1.611527656697     12.303005467999984     12.303005467999984      6.835005467999986
     498  1      -1.611527656697     15.037005467999984     12.303005467999984      6.835005467999986
     499  1      -1.611527656697     15.037005467999984     15.037005467999984      6.835005467999986
     500  1      -1.611527656697     15.037005467999984     12.303005467999984      9.569005467999984
     501  1      -1.611527656697     15.037005467999984     15.037005467999984      9.569005467999984
     502  1      -1.611527656697     12.303005467999984     15.037005467999984      6.835005467999986
     503  1      -1.611527656697     12.303005467999984     12.303005467999984      9.569005467999984
     504  1      -1.611527656697     12.303005467999984     15.037005467999984      9.569005467999984
     505  2       3.229350343303     10.936005467999983     10.936005467999983     10.936005467999983
     506  2       3.229350343303     13.670005467999985     13.670005467999985     10.936005467999983
     507  2       3.229350343303     10.936005467999983     13.670005467999985     13.670005467999985
     508  2       3.229350343303     13.670005467999985     10.936005467999983     13.670005467999985
     509  1      -1.611527656697     12.303005467999984     12.303005467999984     12.303005467999984
     510  1      -1.611527656697     15.037005467999984     12.303005467999984     12.303005467999984
     511  1      -1.611527656697     15.037005467999984     15.037005467999984     12.303005467999984
     512  1      -1.611527656697     15.037005467999984     12.303005467999984     15.037005467999984
     513  1      -1.611527656697     15.037005467999984     15.037005467999984     15.037005467999984
     514  1      -1.611527656697     12.303005467999984     15.037005467999984     12.303005467999984
     515  1      -1.611527656697     12.303005467999984     12.303005467999984     15.037005467999984
     516  1      -1.611527656697     12.303005467999984     15.037005467999984     15.037005467999984
     517  2       3.229350343303     10.936005467999983     10.936005467999983     16.404005467999983
     518  2       3.229350343303     13.670005467999985     13.670005467999985     16.404005467999983
     519  2       3.229350343303     10.936005467999983     13.670005467999985     19.138005467999985
     520  2       3.229350343303     13.670005467999985     10.936005467999983     19.138005467999985
     521  1      -1.611527656697     12.303005467999984     12.303005467999984     17.771005467999984
     522  1      -1.611527656697     15.037005467999984     12.303005467999984     17.771005467999984
     523  1      -1.611527656697     15.037005467999984     15.037005467999984     17.771005467999984
     524  1      -1.611527656697     15.037005467999984     12.303005467999984     20.505005467999986
     525  1      -1.611527656697     15.037005467999984     15.037005467999984     20.505005467999986
     526  1      -1.611527656697     12.303005467999984     15.037005467999984     17.771005467999984
     527  1      -1.611527656697     12.303005467999984     12.303005467999984     20.505005467999986
     528  1      -1.611527656697     12.303005467999984     15.037005467999984     20.505005467999986
     529  2       3.229350343303     10.936005467999983     16.404005467999983      0.000005467999986
     530  2       3.229350343303     13.670005467999985     19.138005467999985      0.000005467999986
     531  2       3.229350343303     10.936005467999983     19.138005467999985      2.734005467999986
     532  2       3.229350343303     13.670005467999985     16.404005467999983      2.734005467999986
     533  1      -1.611527656697     12.303005467999984     17.771005467999984      1.367005467999986
     534  1      -1.611527656697     15.037005467999984     17.771005467999984      1.367005467999986
     535  1      -1.611527656697     15.037005467999984     20.505005467999986      1.367005467999986
     536  1      -1.611527656697     15.037005467999984     17.771005467999984      4.101005467999986
     537  1      -1.611527656697     15.037005467999984     20.505005467999986      4.101005467999986
     538  1      -1.611527656697     12.303005467999984     20.505005467999986      1.367005467999986
     539  1      -1.611527656697     12.303005467999984     17.771005467999984      4.101005467999986
     540  1      -1.611527656697     12.303005467999984     20.505005467999986      4.101005467999986
     541  2       3.229350343303     10.936005467999983     16.404005467999983      5.468005467999985
     542  2       3.229350343303     13.670005467999985     19.138005467999985      5.468005467999985
     543  2       3.229350343303     10.936005467999983     19.138005467999985      8.202005467999985
     544  2       3.229350343303     13.670005467999985     16.404005467999983      8.202005467999985
     545  1      -1.611527656697     12.303005467999984     17.771005467999984      6.835005467999986
     546  1      -1.611527656697     15.037005467999984     17.771005467999984      6.835005467999986
     547  1      -1.611527656697     15.037005467999984     20.505005467999986      6.835005467999986
     548  1      -1.611527656697     15.037005467999984     17.771005467999984      9.569005467999984
     549  1      -1.611527656697     15.037005467999984     20.505005467999986      9.569005467999984
     550  1      -1.611527656697     12.303005467999984     20.505005467999986      6.835005467999986
     551  1      -1.611527656697     12.303005467999984     17.771005467999984      9.569005467999984
     552  1      -1.611527656697     12.303005467999984     20.505005467999986      9.569005467999984
     553  2       3.229350343303     10.936005467999983     16.404005467999983     10.936005467999983
     554  2       3.229350343303     13.670005467999985     19.138005467999985     10.936005467999983
     555  2       3.229350343303     10.936005467999983     19.138005467999985     13.670005467999985
     556  2       3.229350343303     13.670005467999985     16.404005467999983     13.670005467999985
     557  1      -1.611527656697     12.303005467999984     17.771005467999984     12.303005467999984
     558  1      -1.611527656697     15.037005467999984     17.771005467999984     12.303005467999984
     559  1      -1.611527656697     15.037005467999984     20.505005467999986     12.303005467999984
     560  1      -1.611527656697     15.037005467999984     17.771005467999984     15.037005467999984
     561  1      -1.611527656697     15.037005467999984     20.505005467999986     15.037005467999984
     562  1      -1.611527656697     12.303005467999984     20.505005467999986     12.303005467999984
     563  1      -1.611527656697     12.303005467999984     17.771005467999984     15.037005467999984
     564  1      -1.611527656697     12.303005467999984     20.505005467999986     15.037005467999984
     565  2       3.229350343303     10.936005467999983     16.404005467999983     16.404005467999983
     566  2       3.229350343303     13.670005467999985     19.138005467999985     16.404005467999983
     567  2       3.229350343303     10.936005467999983     19.138005467999985     19.138005467999985
     568  2       3.229350343303     13.670005467999985     16.404005467999983     19.138005467999985
     569  1      -1.611527656697     12.303005467999984     17.771005467999984     17.771005467999984
     570  1      -1.611527656697     15.037005467999984     17.771005467999984     17.771005467999984
     571  1      -1.611527656697     15.037005467999984     20.505005467999986     17.771005467999984
     572  1      -1.611527656697     15.037005467999984     17.771005467999984     20.505005467999986
     573  1      -1.611527656697     15.037005467999984     20.505005467999986     20.505005467999986
     574  1      -1.611527656697     12.303005467999984     20.505005467999986     17.771005467999984
     575  1      -1.611527656697     12.303005467999984     17.771005467999984     20.505005467999986
     576  1      -1.611527656697     12.303005467999984     20.505005467999986     20.505005467999986
     577  2       3.229350343303     16.404005467999983      0.000005467999986      0.000005467999986
     578  2       3.229350343303     19.138005467999985      2.734005467999986      0.000005467999986
     579  2       3.229350343303     16.404005467999983      2.734005467999986      2.734005467999986
     580  2       3.229350343303     19.138005467999985      0.000005467999986      2.734005467999986
     581  1      -1.611527656697     17.771005467999984      1.367005467999986      1.367005467999986
     582  1      -1.611527656697     20.505005467999986      1.367005467999986      1.367005467999986
     583  1      -1.611527656697     20.505005467999986      4.101005467999986      1.367005467999986
     584  1      -1.611527656697     20.505005467999986      1.367005467999986      4.101005467999986
     585  1      -1.611527656697     20.505005467999986      4.101005467999986      4.101005467999986
     586  1      -1.611527656697     17.771005467999984      4.101005467999986      1.367005467999986
     587  1      -1.611527656697     17.771005467999984      1.367005467999986      4.101005467999986
     588  1      -1.611527656697     17.771005467999984      4.101005467999986      4.101005467999986
     589  2       3.229350343303     16.404005467999983      0.000005467999986      5.468005467999985
     590  2       3.229350343303     19.138005467999985      2.734005467999986      5.468005467999985
     591  2       3.229350343303     16.404005467999983      2.734005467999986      8.202005467999985
     592  2       3.229350343303     19.138005467999985      0.000005467999986      8.202005467999985
     593  1      -1.611527656697     17.771005467999984      1.367005467999986      6.835005467999986
     594  1      -1.611527656697     20.505005467999986      1.367005467999986      6.835005467999986
     595  1      -1.611527656697     20.505005467999986      4.101005467999986      6.835005467999986
     596  1      -1.611527656697     20.505005467999986      1.367005467999986      9.569005467999984
     597  1      -1.611527656697     20.505005467999986      4.101005467999986      9.569005467999984
     598  1      -1.611527656697     17.771005467999984      4.101005467999986      6.835005467999986
     599  1      -1.611527656697     17.771005467999984      1.367005467999986      9.569005467999984
     600  1      -1.611527656697     17.771005467999984      4.101005467999986      9.569005467999984
     601  2       3.229350343303     16.404005467999983      0.000005467999986     10.936005467999983
     602  2       3.229350343303     19.138005467999985      2.734005467999986     10.936005467999983
     603  2       3.229350343303     16.404005467999983      2.734005467999986     13.670005467999985
     604  2       3.229350343303     19.138005467999985      0.000005467999986     13.670005467999985
     605  1      -1.611527656697     17.771005467999984      1.367005467999986     12.303005467999984
     606  1      -1.611527656697     20.505005467999986      1.367005467999986     12.303005467999984
     607  1      -1.611527656697     20.505005467999986      4.101005467999986     12.303005467999984
     608  1      -1.611527656697     20.505005467999986      1.367005467999986     15.037005467999984
     609  1      -1.611527656697     20.505005467999986      4.101005467999986     15.037005467999984
     610  1      -1.611527656697     17.771005467999984      4.101005467999986     12.303005467999984
     611  1      -1.611527656697     17.771005467999984      1.367005467999986     15.037005467999984
     612  1      -1.611527656697     17.771005467999984      4.101005467999986     15.037005467999984
     613  2       3.229350343303     16.404005467999983      0.000005467999986     16.404005467999983
     614  2       3.229350343303     19.138005467999985      2.734005467999986     16.404005467999983
     615  2       3.229350343303     16.404005467999983      2.734005467999986     19.138005467999985
     616  2       3.229350343303     19.138005467999985      0.000005467999986     19.138005467999985
     617  1      -1.611527656697     17.771005467999984      1.367005467999986     17.771005467999984
     618  1      -1.611527656697     20.505005467999986      1.367005467999986     17.771005467999984
     619  1      -1.611527656697     20.505005467999986      4.101005467999986     17.771005467999984
     620  1      -1.611527656697     20.505005467999986      1.367005467999986     20.505005467999986
     621  1      -1.611527656697     20.505005467999986      4.101005467999986     20.505005467999986
     622  1      -1.611527656697     17.771005467999984      4.101005467999986     17.771005467999984
     623  1      -1.611527656697     17.771005467999984      1.367005467999986     20.505005467999986
     624  1      -1.611527656697     17.771005467999984      4.101005467999986     20.505005467999986
     625  2       3.229350343303     16.404005467999983      5.468005467999985      0.000005467999986
     626  2       3.229350343303     19.138005467999985      8.202005467999985      0.000005467999986
     627  2       3.229350343303     16.404005467999983      8.202005467999985      2.734005467999986
     628  2       3.229350343303     19.138005467999985      5.468005467999985      2.734005467999986
     629  1      -1.611527656697     17.771005467999984      6.835005467999986      1.367005467999986
     630  1      -1.611527656697     20.505005467999986      6.835005467999986      1.367005467999986
     631  1      -1.611527656697     20.505005467999986      9.569005467999984      1.367005467999986
     632  1      -1.611527656697     20.505005467999986      6.835005467999986      4.101005467999986
     633  1      -1.611527656697     20.505005467999986      9.569005467999984      4.101005467999986
     634  1      -1.611527656697     17.771005467999984      9.569005467999984      1.367005467999986
     635  1      -1.611527656697     17.771005467999984      6.835005467999986      4.101005467999986
     636  1      -1.611527656697     17.771005467999984      9.569005467999984      4.101005467999986
     637  2       3.229350343303     16.404005467999983      5.468005467999985      5.468005467999985
     638  2       3.229350343303     19.138005467999985      8.202005467999985      5.468005467999985
     639  2       3.229350343303     16.404005467999983      8.202005467999985      8.202005467999985
     640  2       3.229350343303     19.138005467999985      5.468005467999985      8.202005467999985
     641  1      -1.611527656697     17.771005467999984      6.835005467999986      6.835005467999986
     642  1      -1.611527656697     20.505005467999986      6.835005467999986      6.835005467999986
     643  1      -1.611527656697     20.505005467999986      9.569005467999984      6.835005467999986
     644  1      -1.611527656697     20.505005467999986      6.835005467999986      9.569005467999984
     645  1      -1.611527656697     20.505005467999986      9.569005467999984      9.569005467999984
     646  1      -1.611527656697     17.771005467999984      9.569005467999984      6.835005467999986
     647  1      -1.611527656697     17.771005467999984      6.835005467999986      9.569005467999984
     648  1      -1.611527656697     17.771005467999984      9.569005467999984      9.569005467999984
     649  2       3.229350343303     16.404005467999983      5.468005467999985     10.936005467999983
     650  2       3.229350343303     19.138005467999985      8.202005467999985     10.936005467999983
     651  2       3.229350343303     16.404005467999983      8.202005467999985     13.670005467999985
     652  2       3.229350343303     19.138005467999985      5.468005467999985     13.670005467999985
     653  1      -1.611527656697     17.771005467999984      6.835005467999986     12.303005467999984
     654  1      -1.611527656697     20.505005467999986      6.835005467999986     12.303005467999984
     655  1      -1.611527656697     20.505005467999986      9.569005467999984     12.303005467999984
     656  1      -1.611527656697     20.505005467999986      6.835005467999986     15.037005467999984
     657  1      -1.611527656697     20.505005467999986      9.569005467999984     15.037005467999984
     658  1      -1.611527656697     17.771005467999984      9.569005467999984     12.303005467999984
     659  1      -1.611527656697     17.771005467999984      6.835005467999986     15.037005467999984
     660  1      -1.611527656697     17.771005467999984      9.569005467999984     15.037005467999984
     661  2       3.229350343303     16.404005467999983      5.468005467999985     16.404005467999983
     662  2       3.229350343303     19.138005467999985      8.202005467999985     16.404005467999983
     663  2       3.229350343303     16.404005467999983      8.202005467999985     19.138005467999985
     664  2       3.229350343303     19.138005467999985      5.468005467999985     19.138005467999985
     665  1      -1.611527656697     17.771005467999984      6.835005467999986     17.771005467999984
     666  1      -1.611527656697     20.505005467999986      6.835005467999986     17.771005467999984
     667  1      -1.611527656697     20.505005467999986      9.569005467999984     17.771005467999984
     668  1      -1.611527656697     20.505005467999986      6.835005467999986     20.505005467999986
     669  1      -1.611527656697     20.505005467999986      9.569005467999984     20.505005467999986
     670  1      -1.611527656697     17.771005467999984      9.569005467999984     17.771005467999984
     671  1      -1.611527656697     17.771005467999984      6.835005467999986     20.505005467999986
     672  1      -1.611527656697     17.771005467999984      9.569005467999984     20.505005467999986
     673  2       3.229350343303     16.404005467999983     10.936005467999983      0.000005467999986
     674  2       3.229350343303     19.138005467999985     13.670005467999985      0.000005467999986
     675  2       3.229350343303     16.404005467999983     13.670005467999985      2.734005467999986
     676  2       3.229350343303     19.138005467999985     10.936005467999983      2.734005467999986
     677  1      -1.611527656697     17.771005467999984     12.303005467999984      1.367005467999986
     678  1      -1.611527656697     20.505005467999986     12.303005467999984      1.367005467999986
     679  1      -1.611527656697     20.505005467999986     15.037005467999984      1.367005467999986
     680  1      -1.611527656697     20.505005467999986     12.303005467999984      4.101005467999986
     681  1      -1.611527656697     20.505005467999986     15.037005467999984      4.101005467999986
     682  1      -1.611527656697     17.771005467999984     15.037005467999984      1.367005467999986
     683  1      -1.611527656697     17.771005467999984     12.303005467999984      4.101005467999986
     684  1      -1.611527656697     17.771005467999984     15.037005467999984      4.101005467999986
     685  2       3.229350343303     16.404005467999983     10.936005467999983      5.468005467999985
     686  2       3.229350343303     19.138005467999985     13.670005467999985      5.468005467999985
     687  2       3.229350343303     16.404005467999983     13.670005467999985      8.202005467999985
     688  2       3.229350343303     19.138005467999985     10.936005467999983      8.202005467999985
     689  1      -1.611527656697     17.771005467999984     12.303005467999984      6.835005467999986
     690  1      -1.611527656697     20.505005467999986     12.303005467999984      6.835005467999986
     691  1      -1.611527656697     20.505005467999986     15.037005467999984      6.835005467999986
     692  1      -1.611527656697     20.505005467999986     12.303005467999984      9.569005467999984
     693  1      -1.611527656697     20.505005467999986     15.037005467999984      9.569005467999984
     694  1      -1.611527656697     17.771005467999984     15.037005467999984      6.835005467999986
     695  1      -1.611527656697     17.771005467999984     12.303005467999984      9.569005467999984
     696  1      -1.611527656697     17.771005467999984     15.037005467999984      9.569005467999984
     697  2       3.229350343303     16.404005467999983     10.936005467999983     10.936005467999983
     698  2       3.229350343303     19.138005467999985     13.670005467999985     10.936005467999983
     699  2       3.229350343303     16.404005467999983     13.670005467999985     13.670005467999985
     700  2       3.229350343303     19.138005467999985     10.936005467999983     13.670005467999985
     701  1      -1.611527656697     17.771005467999984     12.303005467999984     12.303005467999984
     702  1      -1.611527656697     20.505005467999986     12.303005467999984     12.303005467999984
     703  1      -1.611527656697     20.505005467999986     15.037005467999984     12.303005467999984
     704  1      -1.611527656697     20.505005467999986     12.303005467999984     15.037005467999984
     705  1      -1.611527656697     20.505005467999986     15.037005467999984     15.037005467999984
     706  1      -1.611527656697     17.771005467999984     15.037005467999984     12.303005467999984
     707  1      -1.611527656697     17.771005467999984     12.303005467999984     15.037005467999984
     708  1      -1.611527656697     17.771005467999984     15.037005467999984     15.037005467999984
     709  2       3.229350343303     16.404005467999983     10.936005467999983     16.404005467999983
     710  2       3.229350343303     19.138005467999985     13.670005467999985     16.404005467999983
     711  2       3.229350343303     16.404005467999983     13.670005467999985     19.138005467999985
     712  2       3.229350343303     19.138005467999985     10.936005467999983     19.138005467999985
     713  1      -1.611527656697     17.771005467999984     12.303005467999984     17.771005467999984
     714  1      -1.611527656697     20.505005467999986     12.303005467999984     17.771005467999984
     715  1      -1.611527656697     20.505005467999986     15.037005467999984     17.771005467999984
     716  1      -1.611527656697     20.505005467999986     12.303005467999984     20.505005467999986
     717  1      -1.611527656697     20.505005467999986     15.037005467999984     20.505005467999986
     718  1      -1.611527656697     17.771005467999984     15.037005467999984     17.771005467999984
     719  1      -1.611527656697     17.771005467999984     12.303005467999984     20.505005467999986
     720  1      -1.611527656697     17.771005467999984     15.037005467999984     20.505005467999986
     721  2       3.229350343303     16.404005467999983     16.404005467999983      0.000005467999986
     722  2       3.229350343303     19.138005467999985     19.138005467999985      0.000005467999986
     723  2       3.229350343303     16.404005467999983     19.138005467999985      2.734005467999986
     724  2       3.229350343303     19.138005467999985     16.404005467999983      2.734005467999986
     725  1      -1.611527656697     17.771005467999984     17.771005467999984      1.367005467999986
     726  1      -1.611527656697     20.505005467999986     17.771005467999984      1.367005467999986
     727  1      -1.611527656697     20.505005467999986     20.505005467999986      1.367005467999986
     728  1      -1.611527656697     20.505005467999986     17.771005467999984      4.101005467999986
     729  1      -1.611527656697     20.505005467999986     20.505005467999986      4.101005467999986
     730  1      -1.611527656697     17.771005467999984     20.505005467999986      1.367005467999986
     731  1      -1.611527656697     17.771005467999984     17.771005467999984      4.101005467999986
     732  1      -1.611527656697     17.771005467999984     20.505005467999986      4.101005467999986
     733  2       3.229350343303     16.404005467999983     16.404005467999983      5.468005467999985
     734  2       3.229350343303     19.138005467999985     19.138005467999985      5.468005467999985
     735  2       3.229350343303     16.404005467999983     19.138005467999985      8.202005467999985
     736  2       3.229350343303     19.138005467999985     16.404005467999983      8.202005467999985
     737  1      -1.611527656697     17.771005467999984     17.771005467999984      6.835005467999986
     738  1      -1.611527656697     20.505005467999986     17.771005467999984      6.835005467999986
     739  1      -1.611527656697     20.505005467999986     20.505005467999986      6.835005467999986
     740  1      -1.611527656697     20.505005467999986     17.771005467999984      9.569005467999984
     741  1      -1.611527656697     20.505005467999986     20.505005467999986      9.569005467999984
     742  1      -1.611527656697     17.771005467999984     20.505005467999986      6.835005467999986
     743  1      -1.611527656697     17.771005467999984     17.771005467999984      9.569005467999984
     744  1      -1.611527656697     17.771005467999984     20.505005467999986      9.569005467999984
     745  2       3.229350343303     16.404005467999983     16.404005467999983     10.936005467999983
     746  2       3.229350343303     19.138005467999985     19.138005467999985     10.936005467999983
     747  2       3.229350343303     16.404005467999983     19.138005467999985     13.670005467999985
     748  2       3.229350343303     19.138005467999985     16.404005467999983     13.670005467999985
     749  1      -1.611527656697     17.771005467999984     17.771005467999984     12.303005467999984
     750  1      -1.611527656697     20.505005467999986     17.771005467999984     12.303005467999984
     751  1      -1.611527656697     20.505005467999986     20.505005467999986     12.303005467999984
     752  1      -1.611527656697     20.505005467999986     17.771005467999984     15.037005467999984
     753  1      -1.611527656697     20.505005467999986     20.505005467999986     15.037005467999984
     754  1      -1.611527656697     17.771005467999984     20.505005467999986     12.303005467999984
     755  1      -1.611527656697     17.771005467999984     17.771005467999984     15.037005467999984
     756  1      -1.611527656697     17.771005467999984     20.505005467999986     15.037005467999984
     757  2       3.229350343303     16.404005467999983     16.404005467999983     16.404005467999983
     758  2       3.229350343303     19.138005467999985     19.138005467999985     16.404005467999983
     759  2       3.229350343303     16.404005467999983     19.138005467999985     19.138005467999985
     760  2       3.229350343303     19.138005467999985     16.404005467999983     19.138005467999985
     761  1      -1.611527656697     17.771005467999984     17.771005467999984     17.771005467999984
     762  1      -1.611527656697     20.505005467999986     17.771005467999984     17.771005467999984
     763  1      -1.611527656697     20.505005467999986     20.505005467999986     17.771005467999984
     764  1      -1.611527656697     20.505005467999986     17.771005467999984     20.505005467999986
     765  1      -1.611527656697     20.505005467999986     20.505005467999986     20.505005467999986
     766  1      -1.611527656697     17.771005467999984     20.505005467999986     17.771005467999984
     767  1      -1.611527656697     17.771005467999984     17.771005467999984     20.505005467999986
     768  1      -1.611527656697     17.771005467999984     20.505005467999986     20.505005467999986
     769  1      -1.611527656697     18.663678694365831     13.318301507513773      3.859212329634014
